K-POINTS
0
GMonkhorst-Pack
12 12 1 
0    0    0
