    3    3    1    1
  0.4355789E+02  0.3171634E-09  0.3171634E-09  0.1500000E-08  0.5000000E-15
  1.000000000000000E-004
  CAR 
 1H-MoS2 public-CHGCAR SOC NSCF          
     18     49     26
 
  0.3333333E+00  0.6666667E+00  0.0000000E+00  0.2040816E-01
    1      -13.280378   1.000000
    2      -13.248820   1.000000
    3      -13.171942   1.000000
    4      -13.168503   1.000000
    5       -6.667617   1.000000
    6       -6.660502   1.000000
    7       -5.922758   1.000000
    8       -5.887510   1.000000
    9       -5.402309   1.000000
   10       -5.370968   1.000000
   11       -4.874935   1.000000
   12       -4.867614   1.000000
   13       -4.305112   1.000000
   14       -4.255948   1.000000
   15       -3.613838   1.000000
   16       -3.590026   1.000000
   17       -1.421984   1.000000
   18       -1.274874   1.000000
   19        0.398676   0.000000
   20        0.400895   0.000000
   21        1.499665   0.000000
   22        1.530296   0.000000
   23        1.995233   0.000000
   24        2.138172   0.000000
   25        3.393590   0.000000
   26        3.474606   0.000000
 
  0.3194444E+00  0.6388889E+00  0.0000000E+00  0.2040816E-01
    1      -13.287302   1.000000
    2      -13.256046   1.000000
    3      -13.176158   1.000000
    4      -13.172739   1.000000
    5       -6.655197   1.000000
    6       -6.648005   1.000000
    7       -5.982579   1.000000
    8       -5.949924   1.000000
    9       -5.337521   1.000000
   10       -5.305578   1.000000
   11       -4.859623   1.000000
   12       -4.854389   1.000000
   13       -4.321120   1.000000
   14       -4.274388   1.000000
   15       -3.590904   1.000000
   16       -3.569822   1.000000
   17       -1.439995   1.000000
   18       -1.295246   1.000000
   19        0.420748   0.000000
   20        0.421065   0.000000
   21        1.508208   0.000000
   22        1.537938   0.000000
   23        1.974043   0.000000
   24        2.116261   0.000000
   25        3.380886   0.000000
   26        3.460965   0.000000
 
  0.3055556E+00  0.6111111E+00  0.0000000E+00  0.2040816E-01
    1      -13.309475   1.000000
    2      -13.279121   1.000000
    3      -13.189349   1.000000
    4      -13.185987   1.000000
    5       -6.616565   1.000000
    6       -6.609125   1.000000
    7       -6.100560   1.000000
    8       -6.073048   1.000000
    9       -5.201103   1.000000
   10       -5.169927   1.000000
   11       -4.817951   1.000000
   12       -4.816958   1.000000
   13       -4.365677   1.000000
   14       -4.324400   1.000000
   15       -3.526012   1.000000
   16       -3.511349   1.000000
   17       -1.493409   1.000000
   18       -1.354853   1.000000
   19        0.476680   0.000000
   20        0.483343   0.000000
   21        1.529658   0.000000
   22        1.556210   0.000000
   23        1.909792   0.000000
   24        2.049115   0.000000
   25        3.345821   0.000000
   26        3.422943   0.000000
 
  0.2916667E+00  0.5833333E+00  0.0000000E+00  0.2040816E-01
    1      -13.348542   1.000000
    2      -13.319656   1.000000
    3      -13.211933   1.000000
    4      -13.208674   1.000000
    5       -6.550332   1.000000
    6       -6.542453   1.000000
    7       -6.215957   1.000000
    8       -6.194088   1.000000
    9       -5.066074   1.000000
   10       -5.041667   1.000000
   11       -4.747039   1.000000
   12       -4.732828   1.000000
   13       -4.427614   1.000000
   14       -4.391527   1.000000
   15       -3.431442   1.000000
   16       -3.423897   1.000000
   17       -1.575318   1.000000
   18       -1.444665   1.000000
   19        0.556308   0.000000
   20        0.570092   0.000000
   21        1.557249   0.000000
   22        1.576600   0.000000
   23        1.807988   0.000000
   24        1.940017   0.000000
   25        3.294267   0.000000
   26        3.366118   0.000000
 
  0.2777778E+00  0.5555556E+00  0.0000000E+00  0.2040816E-01
    1      -13.405398   1.000000
    2      -13.378479   1.000000
    3      -13.243918   1.000000
    4      -13.240814   1.000000
    5       -6.456045   1.000000
    6       -6.447582   1.000000
    7       -6.307502   1.000000
    8       -6.291313   1.000000
    9       -4.977662   1.000000
   10       -4.962826   1.000000
   11       -4.623085   1.000000
   12       -4.590718   1.000000
   13       -4.493819   1.000000
   14       -4.459759   1.000000
   15       -3.319140   1.000000
   16       -3.318041   1.000000
   17       -1.674483   1.000000
   18       -1.551589   1.000000
   19        0.641630   0.000000
   20        0.659765   0.000000
   21        1.581502   0.000000
   22        1.583670   0.000000
   23        1.690205   0.000000
   24        1.799306   0.000000
   25        3.233035   0.000000
   26        3.296970   0.000000
 
  0.2638889E+00  0.5277778E+00  0.0000000E+00  0.2040816E-01
    1      -13.480077   1.000000
    2      -13.455521   1.000000
    3      -13.284917   1.000000
    4      -13.282022   1.000000
    5       -6.368362   1.000000
    6       -6.359241   1.000000
    7       -6.334126   1.000000
    8       -6.323405   1.000000
    9       -4.937125   1.000000
   10       -4.926595   1.000000
   11       -4.561781   1.000000
   12       -4.546243   1.000000
   13       -4.430132   1.000000
   14       -4.402666   1.000000
   15       -3.201992   1.000000
   16       -3.197478   1.000000
   17       -1.779303   1.000000
   18       -1.663125   1.000000
   19        0.713137   0.000000
   20        0.728778   0.000000
   21        1.503421   0.000000
   22        1.600457   0.000000
   23        1.635040   0.000000
   24        1.644161   0.000000
   25        3.168815   0.000000
   26        3.222007   0.000000
 
  0.2500000E+00  0.5000000E+00  0.0000000E+00  0.2040816E-01
    1      -13.571697   1.000000
    2      -13.549767   1.000000
    3      -13.334174   1.000000
    4      -13.331532   1.000000
    5       -6.397020   1.000000
    6       -6.392649   1.000000
    7       -6.185966   1.000000
    8       -6.174835   1.000000
    9       -4.926148   1.000000
   10       -4.916242   1.000000
   11       -4.615436   1.000000
   12       -4.594962   1.000000
   13       -4.244422   1.000000
   14       -4.203265   1.000000
   15       -3.081732   1.000000
   16       -3.072246   1.000000
   17       -1.880139   1.000000
   18       -1.769473   1.000000
   19        0.752165   0.000000
   20        0.753432   0.000000
   21        1.384193   0.000000
   22        1.488962   0.000000
   23        1.606795   0.000000
   24        1.618737   0.000000
   25        3.106749   0.000000
   26        3.146582   0.000000
 
  0.2361111E+00  0.4722222E+00  0.0000000E+00  0.2040816E-01
    1      -13.678564   1.000000
    2      -13.659385   1.000000
    3      -13.390629   1.000000
    4      -13.388272   1.000000
    5       -6.395991   1.000000
    6       -6.395125   1.000000
    7       -6.013558   1.000000
    8       -6.000841   1.000000
    9       -4.936158   1.000000
   10       -4.925652   1.000000
   11       -4.655322   1.000000
   12       -4.634685   1.000000
   13       -4.047643   1.000000
   14       -3.999862   1.000000
   15       -2.961780   1.000000
   16       -2.947751   1.000000
   17       -1.970283   1.000000
   18       -1.864153   1.000000
   19        0.718725   0.000000
   20        0.744560   0.000000
   21        1.293484   0.000000
   22        1.360839   0.000000
   23        1.589269   0.000000
   24        1.591702   0.000000
   25        3.049155   0.000000
   26        3.073834   0.000000
 
  0.2222222E+00  0.4444444E+00  0.0000000E+00  0.2040816E-01
    1      -13.798341   1.000000
    2      -13.781903   1.000000
    3      -13.453045   1.000000
    4      -13.450987   1.000000
    5       -6.372155   1.000000
    6       -6.366495   1.000000
    7       -5.819906   1.000000
    8       -5.805096   1.000000
    9       -4.963791   1.000000
   10       -4.952573   1.000000
   11       -4.677398   1.000000
   12       -4.656424   1.000000
   13       -3.853220   1.000000
   14       -3.799762   1.000000
   15       -2.845831   1.000000
   16       -2.827517   1.000000
   17       -2.046381   1.000000
   18       -1.944208   1.000000
   19        0.637357   0.000000
   20        0.691010   0.000000
   21        1.234942   0.000000
   22        1.266401   0.000000
   23        1.541281   0.000000
   24        1.557344   0.000000
   25        2.994620   0.000000
   26        3.003624   0.000000
 
  0.2083333E+00  0.4166667E+00  0.0000000E+00  0.2040816E-01
    1      -13.928221   1.000000
    2      -13.914411   1.000000
    3      -13.520044   1.000000
    4      -13.518285   1.000000
    5       -6.327019   1.000000
    6       -6.317245   1.000000
    7       -5.609085   1.000000
    8       -5.591597   1.000000
    9       -5.005105   1.000000
   10       -4.993572   1.000000
   11       -4.678391   1.000000
   12       -4.656481   1.000000
   13       -3.667610   1.000000
   14       -3.608587   1.000000
   15       -2.736963   1.000000
   16       -2.714488   1.000000
   17       -2.107814   1.000000
   18       -2.009522   1.000000
   19        0.543553   0.000000
   20        0.613843   0.000000
   21        1.190164   0.000000
   22        1.197602   0.000000
   23        1.477293   0.000000
   24        1.505970   0.000000
   25        2.932946   0.000000
   26        2.938724   0.000000
 
  0.1944444E+00  0.3888889E+00  0.0000000E+00  0.2040816E-01
    1      -14.065189   1.000000
    2      -14.053813   1.000000
    3      -13.590202   1.000000
    4      -13.588730   1.000000
    5       -6.269454   1.000000
    6       -6.256544   1.000000
    7       -5.386905   1.000000
    8       -5.366153   1.000000
    9       -5.052555   1.000000
   10       -5.041284   1.000000
   11       -4.654561   1.000000
   12       -4.630981   1.000000
   13       -3.497722   1.000000
   14       -3.433319   1.000000
   15       -2.637801   1.000000
   16       -2.611166   1.000000
   17       -2.154624   1.000000
   18       -2.060851   1.000000
   19        0.466547   0.000000
   20        0.542070   0.000000
   21        1.141013   0.000000
   22        1.146523   0.000000
   23        1.402628   0.000000
   24        1.442464   0.000000
   25        2.857029   0.000000
   26        2.875723   0.000000
 
  0.1805556E+00  0.3611111E+00  0.0000000E+00  0.2040816E-01
    1      -14.206185   1.000000
    2      -14.197003   1.000000
    3      -13.662112   1.000000
    4      -13.660908   1.000000
    5       -6.212374   1.000000
    6       -6.197757   1.000000
    7       -5.162399   1.000000
    8       -5.140144   1.000000
    9       -5.093121   1.000000
   10       -5.080887   1.000000
   11       -4.599748   1.000000
   12       -4.573995   1.000000
   13       -3.353327   1.000000
   14       -3.284833   1.000000
   15       -2.550516   1.000000
   16       -2.519652   1.000000
   17       -2.183643   1.000000
   18       -2.096306   1.000000
   19        0.422613   0.000000
   20        0.495533   0.000000
   21        1.091083   0.000000
   22        1.102598   0.000000
   23        1.323586   0.000000
   24        1.372956   0.000000
   25        2.771120   0.000000
   26        2.800385   0.000000
 
  0.1666667E+00  0.3333333E+00  0.0000000E+00  0.2040816E-01
    1      -14.348246   1.000000
    2      -14.340991   1.000000
    3      -13.734382   1.000000
    4      -13.733419   1.000000
    5       -6.172957   1.000000
    6       -6.158586   1.000000
    7       -5.108629   1.000000
    8       -5.103292   1.000000
    9       -4.949347   1.000000
   10       -4.920534   1.000000
   11       -4.502055   1.000000
   12       -4.475523   1.000000
   13       -3.247830   1.000000
   14       -3.179087   1.000000
   15       -2.476586   1.000000
   16       -2.441747   1.000000
   17       -2.185397   1.000000
   18       -2.108415   1.000000
   19        0.417405   0.000000
   20        0.482480   0.000000
   21        1.050153   0.000000
   22        1.063415   0.000000
   23        1.246522   0.000000
   24        1.303854   0.000000
   25        2.672032   0.000000
   26        2.709506   0.000000
 
  0.1527778E+00  0.3055556E+00  0.0000000E+00  0.2040816E-01
    1      -14.488607   1.000000
    2      -14.483009   1.000000
    3      -13.805730   1.000000
    4      -13.804979   1.000000
    5       -6.168232   1.000000
    6       -6.156078   1.000000
    7       -5.080578   1.000000
    8       -5.079090   1.000000
    9       -4.763775   1.000000
   10       -4.738210   1.000000
   11       -4.346812   1.000000
   12       -4.324943   1.000000
   13       -3.194465   1.000000
   14       -3.131740   1.000000
   15       -2.416624   1.000000
   16       -2.379215   1.000000
   17       -2.148648   1.000000
   18       -2.086788   1.000000
   19        0.448622   0.000000
   20        0.502099   0.000000
   21        1.024450   0.000000
   22        1.036449   0.000000
   23        1.177362   0.000000
   24        1.241236   0.000000
   25        2.558700   0.000000
   26        2.602210   0.000000
 
  0.1388889E+00  0.2777778E+00  0.0000000E+00  0.2040816E-01
    1      -14.624728   1.000000
    2      -14.620521   1.000000
    3      -13.874932   1.000000
    4      -13.874364   1.000000
    5       -6.205170   1.000000
    6       -6.196184   1.000000
    7       -5.005062   1.000000
    8       -5.002088   1.000000
    9       -4.606905   1.000000
   10       -4.588685   1.000000
   11       -4.139793   1.000000
   12       -4.127044   1.000000
   13       -3.196713   1.000000
   14       -3.144677   1.000000
   15       -2.371350   1.000000
   16       -2.333587   1.000000
   17       -2.073172   1.000000
   18       -2.028403   1.000000
   19        0.509150   0.000000
   20        0.548287   0.000000
   21        1.020605   0.000000
   22        1.029013   0.000000
   23        1.121787   0.000000
   24        1.190943   0.000000
   25        2.432206   0.000000
   26        2.479844   0.000000
 
  0.1250000E+00  0.2500000E+00  0.0000000E+00  0.2040816E-01
    1      -14.754319   1.000000
    2      -14.751255   1.000000
    3      -13.940876   1.000000
    4      -13.940459   1.000000
    5       -6.276677   1.000000
    6       -6.270603   1.000000
    7       -4.887440   1.000000
    8       -4.880860   1.000000
    9       -4.463526   1.000000
   10       -4.452039   1.000000
   11       -3.908271   1.000000
   12       -3.904109   1.000000
   13       -3.243825   1.000000
   14       -3.202792   1.000000
   15       -2.342051   1.000000
   16       -2.305415   1.000000
   17       -1.973536   1.000000
   18       -1.943962   1.000000
   19        0.590913   0.000000
   20        0.614341   0.000000
   21        1.041166   0.000000
   22        1.043262   0.000000
   23        1.087916   0.000000
   24        1.159704   0.000000
   25        2.295504   0.000000
   26        2.345591   0.000000
 
  0.1111111E+00  0.2222222E+00  0.0000000E+00  0.2040816E-01
    1      -14.875376   1.000000
    2      -14.873227   1.000000
    3      -14.002565   1.000000
    4      -14.002271   1.000000
    5       -6.369261   1.000000
    6       -6.365365   1.000000
    7       -4.739998   1.000000
    8       -4.731161   1.000000
    9       -4.320359   1.000000
   10       -4.313783   1.000000
   11       -3.677580   1.000000
   12       -3.674949   1.000000
   13       -3.318446   1.000000
   14       -3.286444   1.000000
   15       -2.329566   1.000000
   16       -2.294845   1.000000
   17       -1.868622   1.000000
   18       -1.850604   1.000000
   19        0.688495   0.000000
   20        0.697046   0.000000
   21        1.053021   0.000000
   22        1.076657   0.000000
   23        1.106402   0.000000
   24        1.159525   0.000000
   25        2.152781   0.000000
   26        2.203791   0.000000
 
  0.9722222E-01  0.1944444E+00  0.0000000E+00  0.2040816E-01
    1      -14.986161   1.000000
    2      -14.984724   1.000000
    3      -14.059090   1.000000
    4      -14.058892   1.000000
    5       -6.470514   1.000000
    6       -6.468113   1.000000
    7       -4.576408   1.000000
    8       -4.566573   1.000000
    9       -4.171639   1.000000
   10       -4.168711   1.000000
   11       -3.464978   1.000000
   12       -3.454489   1.000000
   13       -3.401950   1.000000
   14       -3.379406   1.000000
   15       -2.334190   1.000000
   16       -2.302129   1.000000
   17       -1.772709   1.000000
   18       -1.762638   1.000000
   19        0.797127   0.000000
   20        0.800520   0.000000
   21        1.061933   0.000000
   22        1.107405   0.000000
   23        1.170729   0.000000
   24        1.205290   0.000000
   25        2.009242   0.000000
   26        2.059721   0.000000
 
  0.8333333E-01  0.1666667E+00  0.0000000E+00  0.2040816E-01
    1      -15.085140   1.000000
    2      -15.084236   1.000000
    3      -14.109651   1.000000
    4      -14.109527   1.000000
    5       -6.571214   1.000000
    6       -6.569803   1.000000
    7       -4.408208   1.000000
    8       -4.398395   1.000000
    9       -4.016418   1.000000
   10       -4.016329   1.000000
   11       -3.496490   1.000000
   12       -3.474340   1.000000
   13       -3.262674   1.000000
   14       -3.252979   1.000000
   15       -2.356048   1.000000
   16       -2.327493   1.000000
   17       -1.693636   1.000000
   18       -1.688563   1.000000
   19        0.915294   0.000000
   20        0.927102   0.000000
   21        1.091694   0.000000
   22        1.141950   0.000000
   23        1.250170   0.000000
   24        1.278997   0.000000
   25        1.870506   0.000000
   26        1.919130   0.000000
 
  0.6944444E-01  0.1388889E+00  0.0000000E+00  0.2040816E-01
    1      -15.171031   1.000000
    2      -15.170509   1.000000
    3      -14.153584   1.000000
    4      -14.153512   1.000000
    5       -6.664843   1.000000
    6       -6.664070   1.000000
    7       -4.245398   1.000000
    8       -4.236385   1.000000
    9       -3.859423   1.000000
   10       -3.856116   1.000000
   11       -3.578562   1.000000
   12       -3.559600   1.000000
   13       -3.093239   1.000000
   14       -3.081140   1.000000
   15       -2.395088   1.000000
   16       -2.370853   1.000000
   17       -1.633799   1.000000
   18       -1.631561   1.000000
   19        1.047820   0.000000
   20        1.065747   0.000000
   21        1.142160   0.000000
   22        1.191951   0.000000
   23        1.332290   0.000000
   24        1.357887   0.000000
   25        1.742572   0.000000
   26        1.787760   0.000000
 
  0.5555556E-01  0.1111111E+00  0.0000000E+00  0.2040816E-01
    1      -15.242753   1.000000
    2      -15.242486   1.000000
    3      -14.190303   1.000000
    4      -14.190266   1.000000
    5       -6.746728   1.000000
    6       -6.746348   1.000000
    7       -4.097141   1.000000
    8       -4.089496   1.000000
    9       -3.709327   1.000000
   10       -3.695553   1.000000
   11       -3.648873   1.000000
   12       -3.624334   1.000000
   13       -2.953825   1.000000
   14       -2.941252   1.000000
   15       -2.450499   1.000000
   16       -2.431186   1.000000
   17       -1.591824   1.000000
   18       -1.590996   1.000000
   19        1.182556   0.000000
   20        1.206692   0.000000
   21        1.210031   0.000000
   22        1.259337   0.000000
   23        1.408113   0.000000
   24        1.430541   0.000000
   25        1.631664   0.000000
   26        1.672132   0.000000
 
  0.4166667E-01  0.8333333E-01  0.0000000E+00  0.2040816E-01
    1      -15.299436   1.000000
    2      -15.299324   1.000000
    3      -14.219347   1.000000
    4      -14.219332   1.000000
    5       -6.813519   1.000000
    6       -6.813364   1.000000
    7       -3.972269   1.000000
    8       -3.966420   1.000000
    9       -3.707536   1.000000
   10       -3.704012   1.000000
   11       -3.535975   1.000000
   12       -3.532587   1.000000
   13       -2.846873   1.000000
   14       -2.835672   1.000000
   15       -2.519477   1.000000
   16       -2.505391   1.000000
   17       -1.564450   1.000000
   18       -1.564211   1.000000
   19        1.277830   0.000000
   20        1.287962   0.000000
   21        1.344605   0.000000
   22        1.353640   0.000000
   23        1.469770   0.000000
   24        1.488228   0.000000
   25        1.546489   0.000000
   26        1.580785   0.000000
 
  0.2777778E-01  0.5555556E-01  0.0000000E+00  0.2040816E-01
    1      -15.340412   1.000000
    2      -15.340379   1.000000
    3      -14.240341   1.000000
    4      -14.240337   1.000000
    5       -6.862826   1.000000
    6       -6.862781   1.000000
    7       -3.880124   1.000000
    8       -3.876552   1.000000
    9       -3.745012   1.000000
   10       -3.741715   1.000000
   11       -3.391992   1.000000
   12       -3.391576   1.000000
   13       -2.774221   1.000000
   14       -2.766344   1.000000
   15       -2.593578   1.000000
   16       -2.584952   1.000000
   17       -1.548006   1.000000
   18       -1.547959   1.000000
   19        1.338808   0.000000
   20        1.349790   0.000000
   21        1.445244   0.000000
   22        1.447984   0.000000
   23        1.489867   0.000000
   24        1.500614   0.000000
   25        1.542689   0.000000
   26        1.544562   0.000000
 
  0.1388889E-01  0.2777778E-01  0.0000000E+00  0.2040816E-01
    1      -15.365195   1.000000
    2      -15.365191   1.000000
    3      -14.253043   1.000000
    4      -14.253043   1.000000
    5       -6.893035   1.000000
    6       -6.893029   1.000000
    7       -3.832217   1.000000
    8       -3.831394   1.000000
    9       -3.756657   1.000000
   10       -3.755855   1.000000
   11       -3.279663   1.000000
   12       -3.279661   1.000000
   13       -2.743045   1.000000
   14       -2.740735   1.000000
   15       -2.648156   1.000000
   16       -2.645790   1.000000
   17       -1.539462   1.000000
   18       -1.539458   1.000000
   19        1.371988   0.000000
   20        1.374732   0.000000
   21        1.449552   0.000000
   22        1.451457   0.000000
   23        1.545827   0.000000
   24        1.549308   0.000000
   25        1.566040   0.000000
   26        1.568175   0.000000
 
  0.0000000E+00  0.0000000E+00  0.0000000E+00  0.2040816E-01
    1      -15.373484   1.000000
    2      -15.373484   1.000000
    3      -14.257296   1.000000
    4      -14.257296   1.000000
    5       -6.903207   1.000000
    6       -6.903207   1.000000
    7       -3.823217   1.000000
    8       -3.823217   1.000000
    9       -3.753280   1.000000
   10       -3.753280   1.000000
   11       -3.233631   1.000000
   12       -3.233631   1.000000
   13       -2.746907   1.000000
   14       -2.746907   1.000000
   15       -2.660336   1.000000
   16       -2.660336   1.000000
   17       -1.536834   1.000000
   18       -1.536834   1.000000
   19        1.376338   0.000000
   20        1.376338   0.000000
   21        1.451006   0.000000
   22        1.451006   0.000000
   23        1.570939   0.000000
   24        1.570976   0.000000
   25        1.578414   0.000000
   26        1.578433   0.000000
 
 -0.1388889E-01 -0.2777778E-01  0.0000000E+00  0.2040816E-01
    1      -15.365195   1.000000
    2      -15.365191   1.000000
    3      -14.253043   1.000000
    4      -14.253043   1.000000
    5       -6.893035   1.000000
    6       -6.893029   1.000000
    7       -3.832217   1.000000
    8       -3.831394   1.000000
    9       -3.756657   1.000000
   10       -3.755855   1.000000
   11       -3.279663   1.000000
   12       -3.279661   1.000000
   13       -2.743045   1.000000
   14       -2.740735   1.000000
   15       -2.648156   1.000000
   16       -2.645790   1.000000
   17       -1.539462   1.000000
   18       -1.539458   1.000000
   19        1.372014   0.000000
   20        1.374734   0.000000
   21        1.449543   0.000000
   22        1.451433   0.000000
   23        1.545631   0.000000
   24        1.549406   0.000000
   25        1.565239   0.000000
   26        1.568386   0.000000
 
 -0.2777778E-01 -0.5555556E-01  0.0000000E+00  0.2040816E-01
    1      -15.340412   1.000000
    2      -15.340379   1.000000
    3      -14.240341   1.000000
    4      -14.240337   1.000000
    5       -6.862826   1.000000
    6       -6.862781   1.000000
    7       -3.880124   1.000000
    8       -3.876552   1.000000
    9       -3.745012   1.000000
   10       -3.741715   1.000000
   11       -3.391992   1.000000
   12       -3.391576   1.000000
   13       -2.774221   1.000000
   14       -2.766344   1.000000
   15       -2.593578   1.000000
   16       -2.584952   1.000000
   17       -1.548006   1.000000
   18       -1.547959   1.000000
   19        1.338806   0.000000
   20        1.349789   0.000000
   21        1.445243   0.000000
   22        1.447982   0.000000
   23        1.489861   0.000000
   24        1.500585   0.000000
   25        1.542624   0.000000
   26        1.544554   0.000000
 
 -0.4166667E-01 -0.8333333E-01  0.0000000E+00  0.2040816E-01
    1      -15.299436   1.000000
    2      -15.299324   1.000000
    3      -14.219347   1.000000
    4      -14.219332   1.000000
    5       -6.813519   1.000000
    6       -6.813364   1.000000
    7       -3.972269   1.000000
    8       -3.966420   1.000000
    9       -3.707536   1.000000
   10       -3.704012   1.000000
   11       -3.535975   1.000000
   12       -3.532587   1.000000
   13       -2.846873   1.000000
   14       -2.835672   1.000000
   15       -2.519477   1.000000
   16       -2.505391   1.000000
   17       -1.564450   1.000000
   18       -1.564211   1.000000
   19        1.277830   0.000000
   20        1.287962   0.000000
   21        1.344607   0.000000
   22        1.353643   0.000000
   23        1.469771   0.000000
   24        1.488231   0.000000
   25        1.546489   0.000000
   26        1.580787   0.000000
 
 -0.5555556E-01 -0.1111111E+00  0.0000000E+00  0.2040816E-01
    1      -15.242753   1.000000
    2      -15.242486   1.000000
    3      -14.190303   1.000000
    4      -14.190266   1.000000
    5       -6.746728   1.000000
    6       -6.746348   1.000000
    7       -4.097141   1.000000
    8       -4.089496   1.000000
    9       -3.709327   1.000000
   10       -3.695553   1.000000
   11       -3.648873   1.000000
   12       -3.624334   1.000000
   13       -2.953825   1.000000
   14       -2.941252   1.000000
   15       -2.450499   1.000000
   16       -2.431186   1.000000
   17       -1.591824   1.000000
   18       -1.590996   1.000000
   19        1.182556   0.000000
   20        1.206693   0.000000
   21        1.210031   0.000000
   22        1.259336   0.000000
   23        1.408114   0.000000
   24        1.430544   0.000000
   25        1.631681   0.000000
   26        1.672113   0.000000
 
 -0.6944444E-01 -0.1388889E+00  0.0000000E+00  0.2040816E-01
    1      -15.171031   1.000000
    2      -15.170509   1.000000
    3      -14.153584   1.000000
    4      -14.153512   1.000000
    5       -6.664843   1.000000
    6       -6.664070   1.000000
    7       -4.245398   1.000000
    8       -4.236385   1.000000
    9       -3.859423   1.000000
   10       -3.856116   1.000000
   11       -3.578562   1.000000
   12       -3.559600   1.000000
   13       -3.093239   1.000000
   14       -3.081140   1.000000
   15       -2.395088   1.000000
   16       -2.370853   1.000000
   17       -1.633799   1.000000
   18       -1.631561   1.000000
   19        1.047820   0.000000
   20        1.065747   0.000000
   21        1.142157   0.000000
   22        1.191951   0.000000
   23        1.332289   0.000000
   24        1.357885   0.000000
   25        1.742576   0.000000
   26        1.787746   0.000000
 
 -0.8333333E-01 -0.1666667E+00  0.0000000E+00  0.2040816E-01
    1      -15.085140   1.000000
    2      -15.084236   1.000000
    3      -14.109651   1.000000
    4      -14.109527   1.000000
    5       -6.571214   1.000000
    6       -6.569803   1.000000
    7       -4.408208   1.000000
    8       -4.398395   1.000000
    9       -4.016418   1.000000
   10       -4.016329   1.000000
   11       -3.496491   1.000000
   12       -3.474340   1.000000
   13       -3.262674   1.000000
   14       -3.252979   1.000000
   15       -2.356048   1.000000
   16       -2.327493   1.000000
   17       -1.693636   1.000000
   18       -1.688563   1.000000
   19        0.915294   0.000000
   20        0.927101   0.000000
   21        1.091694   0.000000
   22        1.141949   0.000000
   23        1.250168   0.000000
   24        1.278997   0.000000
   25        1.870511   0.000000
   26        1.919023   0.000000
 
 -0.9722222E-01 -0.1944444E+00  0.0000000E+00  0.2040816E-01
    1      -14.986161   1.000000
    2      -14.984724   1.000000
    3      -14.059090   1.000000
    4      -14.058892   1.000000
    5       -6.470514   1.000000
    6       -6.468113   1.000000
    7       -4.576408   1.000000
    8       -4.566573   1.000000
    9       -4.171639   1.000000
   10       -4.168711   1.000000
   11       -3.464978   1.000000
   12       -3.454489   1.000000
   13       -3.401950   1.000000
   14       -3.379406   1.000000
   15       -2.334190   1.000000
   16       -2.302129   1.000000
   17       -1.772709   1.000000
   18       -1.762638   1.000000
   19        0.797127   0.000000
   20        0.800520   0.000000
   21        1.061933   0.000000
   22        1.107404   0.000000
   23        1.170729   0.000000
   24        1.205290   0.000000
   25        2.009222   0.000000
   26        2.059704   0.000000
 
 -0.1111111E+00 -0.2222222E+00  0.0000000E+00  0.2040816E-01
    1      -14.875376   1.000000
    2      -14.873227   1.000000
    3      -14.002565   1.000000
    4      -14.002271   1.000000
    5       -6.369261   1.000000
    6       -6.365365   1.000000
    7       -4.739998   1.000000
    8       -4.731161   1.000000
    9       -4.320359   1.000000
   10       -4.313783   1.000000
   11       -3.677580   1.000000
   12       -3.674949   1.000000
   13       -3.318446   1.000000
   14       -3.286444   1.000000
   15       -2.329566   1.000000
   16       -2.294845   1.000000
   17       -1.868622   1.000000
   18       -1.850604   1.000000
   19        0.688495   0.000000
   20        0.697046   0.000000
   21        1.053021   0.000000
   22        1.076657   0.000000
   23        1.106402   0.000000
   24        1.159525   0.000000
   25        2.152783   0.000000
   26        2.203792   0.000000
 
 -0.1250000E+00 -0.2500000E+00  0.0000000E+00  0.2040816E-01
    1      -14.754319   1.000000
    2      -14.751255   1.000000
    3      -13.940876   1.000000
    4      -13.940459   1.000000
    5       -6.276677   1.000000
    6       -6.270603   1.000000
    7       -4.887440   1.000000
    8       -4.880860   1.000000
    9       -4.463526   1.000000
   10       -4.452039   1.000000
   11       -3.908271   1.000000
   12       -3.904109   1.000000
   13       -3.243825   1.000000
   14       -3.202792   1.000000
   15       -2.342051   1.000000
   16       -2.305415   1.000000
   17       -1.973536   1.000000
   18       -1.943962   1.000000
   19        0.590913   0.000000
   20        0.614341   0.000000
   21        1.041166   0.000000
   22        1.043262   0.000000
   23        1.087916   0.000000
   24        1.159704   0.000000
   25        2.295516   0.000000
   26        2.345598   0.000000
 
 -0.1388889E+00 -0.2777778E+00  0.0000000E+00  0.2040816E-01
    1      -14.624728   1.000000
    2      -14.620521   1.000000
    3      -13.874932   1.000000
    4      -13.874364   1.000000
    5       -6.205170   1.000000
    6       -6.196184   1.000000
    7       -5.005062   1.000000
    8       -5.002088   1.000000
    9       -4.606905   1.000000
   10       -4.588685   1.000000
   11       -4.139793   1.000000
   12       -4.127044   1.000000
   13       -3.196713   1.000000
   14       -3.144677   1.000000
   15       -2.371350   1.000000
   16       -2.333587   1.000000
   17       -2.073172   1.000000
   18       -2.028403   1.000000
   19        0.509150   0.000000
   20        0.548287   0.000000
   21        1.020605   0.000000
   22        1.029013   0.000000
   23        1.121787   0.000000
   24        1.190943   0.000000
   25        2.432205   0.000000
   26        2.479842   0.000000
 
 -0.1527778E+00 -0.3055556E+00  0.0000000E+00  0.2040816E-01
    1      -14.488607   1.000000
    2      -14.483009   1.000000
    3      -13.805730   1.000000
    4      -13.804979   1.000000
    5       -6.168232   1.000000
    6       -6.156078   1.000000
    7       -5.080578   1.000000
    8       -5.079090   1.000000
    9       -4.763775   1.000000
   10       -4.738210   1.000000
   11       -4.346812   1.000000
   12       -4.324943   1.000000
   13       -3.194465   1.000000
   14       -3.131740   1.000000
   15       -2.416624   1.000000
   16       -2.379215   1.000000
   17       -2.148648   1.000000
   18       -2.086788   1.000000
   19        0.448622   0.000000
   20        0.502099   0.000000
   21        1.024450   0.000000
   22        1.036449   0.000000
   23        1.177362   0.000000
   24        1.241236   0.000000
   25        2.558701   0.000000
   26        2.602212   0.000000
 
 -0.1666667E+00 -0.3333333E+00  0.0000000E+00  0.2040816E-01
    1      -14.348246   1.000000
    2      -14.340991   1.000000
    3      -13.734382   1.000000
    4      -13.733419   1.000000
    5       -6.172957   1.000000
    6       -6.158586   1.000000
    7       -5.108629   1.000000
    8       -5.103292   1.000000
    9       -4.949347   1.000000
   10       -4.920534   1.000000
   11       -4.502055   1.000000
   12       -4.475523   1.000000
   13       -3.247830   1.000000
   14       -3.179087   1.000000
   15       -2.476586   1.000000
   16       -2.441747   1.000000
   17       -2.185397   1.000000
   18       -2.108415   1.000000
   19        0.417405   0.000000
   20        0.482480   0.000000
   21        1.050153   0.000000
   22        1.063415   0.000000
   23        1.246522   0.000000
   24        1.303854   0.000000
   25        2.672032   0.000000
   26        2.709506   0.000000
 
 -0.1805556E+00 -0.3611111E+00  0.0000000E+00  0.2040816E-01
    1      -14.206185   1.000000
    2      -14.197003   1.000000
    3      -13.662112   1.000000
    4      -13.660908   1.000000
    5       -6.212374   1.000000
    6       -6.197757   1.000000
    7       -5.162399   1.000000
    8       -5.140144   1.000000
    9       -5.093121   1.000000
   10       -5.080887   1.000000
   11       -4.599748   1.000000
   12       -4.573995   1.000000
   13       -3.353327   1.000000
   14       -3.284833   1.000000
   15       -2.550516   1.000000
   16       -2.519652   1.000000
   17       -2.183643   1.000000
   18       -2.096306   1.000000
   19        0.422613   0.000000
   20        0.495533   0.000000
   21        1.091083   0.000000
   22        1.102597   0.000000
   23        1.323586   0.000000
   24        1.372956   0.000000
   25        2.771124   0.000000
   26        2.800389   0.000000
 
 -0.1944444E+00 -0.3888889E+00  0.0000000E+00  0.2040816E-01
    1      -14.065189   1.000000
    2      -14.053813   1.000000
    3      -13.590202   1.000000
    4      -13.588730   1.000000
    5       -6.269454   1.000000
    6       -6.256544   1.000000
    7       -5.386905   1.000000
    8       -5.366153   1.000000
    9       -5.052555   1.000000
   10       -5.041284   1.000000
   11       -4.654561   1.000000
   12       -4.630981   1.000000
   13       -3.497722   1.000000
   14       -3.433319   1.000000
   15       -2.637801   1.000000
   16       -2.611166   1.000000
   17       -2.154624   1.000000
   18       -2.060851   1.000000
   19        0.466547   0.000000
   20        0.542070   0.000000
   21        1.141013   0.000000
   22        1.146523   0.000000
   23        1.402628   0.000000
   24        1.442464   0.000000
   25        2.857027   0.000000
   26        2.875727   0.000000
 
 -0.2083333E+00 -0.4166667E+00  0.0000000E+00  0.2040816E-01
    1      -13.928221   1.000000
    2      -13.914411   1.000000
    3      -13.520044   1.000000
    4      -13.518285   1.000000
    5       -6.327019   1.000000
    6       -6.317245   1.000000
    7       -5.609085   1.000000
    8       -5.591597   1.000000
    9       -5.005105   1.000000
   10       -4.993572   1.000000
   11       -4.678391   1.000000
   12       -4.656481   1.000000
   13       -3.667610   1.000000
   14       -3.608587   1.000000
   15       -2.736963   1.000000
   16       -2.714488   1.000000
   17       -2.107814   1.000000
   18       -2.009522   1.000000
   19        0.543553   0.000000
   20        0.613843   0.000000
   21        1.190164   0.000000
   22        1.197602   0.000000
   23        1.477293   0.000000
   24        1.505970   0.000000
   25        2.932940   0.000000
   26        2.938723   0.000000
 
 -0.2222222E+00 -0.4444444E+00  0.0000000E+00  0.2040816E-01
    1      -13.798341   1.000000
    2      -13.781903   1.000000
    3      -13.453045   1.000000
    4      -13.450987   1.000000
    5       -6.372155   1.000000
    6       -6.366495   1.000000
    7       -5.819906   1.000000
    8       -5.805096   1.000000
    9       -4.963791   1.000000
   10       -4.952573   1.000000
   11       -4.677398   1.000000
   12       -4.656424   1.000000
   13       -3.853220   1.000000
   14       -3.799762   1.000000
   15       -2.845831   1.000000
   16       -2.827517   1.000000
   17       -2.046381   1.000000
   18       -1.944208   1.000000
   19        0.637357   0.000000
   20        0.691010   0.000000
   21        1.234942   0.000000
   22        1.266401   0.000000
   23        1.541281   0.000000
   24        1.557344   0.000000
   25        2.994624   0.000000
   26        3.003623   0.000000
 
 -0.2361111E+00 -0.4722222E+00  0.0000000E+00  0.2040816E-01
    1      -13.678564   1.000000
    2      -13.659385   1.000000
    3      -13.390629   1.000000
    4      -13.388272   1.000000
    5       -6.395991   1.000000
    6       -6.395125   1.000000
    7       -6.013558   1.000000
    8       -6.000841   1.000000
    9       -4.936158   1.000000
   10       -4.925652   1.000000
   11       -4.655322   1.000000
   12       -4.634685   1.000000
   13       -4.047643   1.000000
   14       -3.999862   1.000000
   15       -2.961780   1.000000
   16       -2.947751   1.000000
   17       -1.970283   1.000000
   18       -1.864153   1.000000
   19        0.718725   0.000000
   20        0.744560   0.000000
   21        1.293484   0.000000
   22        1.360839   0.000000
   23        1.589269   0.000000
   24        1.591702   0.000000
   25        3.049162   0.000000
   26        3.073821   0.000000
 
 -0.2500000E+00 -0.5000000E+00  0.0000000E+00  0.2040816E-01
    1      -13.571697   1.000000
    2      -13.549767   1.000000
    3      -13.334174   1.000000
    4      -13.331532   1.000000
    5       -6.397020   1.000000
    6       -6.392649   1.000000
    7       -6.185966   1.000000
    8       -6.174835   1.000000
    9       -4.926148   1.000000
   10       -4.916242   1.000000
   11       -4.615436   1.000000
   12       -4.594962   1.000000
   13       -4.244422   1.000000
   14       -4.203265   1.000000
   15       -3.081732   1.000000
   16       -3.072246   1.000000
   17       -1.880139   1.000000
   18       -1.769473   1.000000
   19        0.752165   0.000000
   20        0.753432   0.000000
   21        1.384193   0.000000
   22        1.488962   0.000000
   23        1.606795   0.000000
   24        1.618737   0.000000
   25        3.106749   0.000000
   26        3.146582   0.000000
 
 -0.2638889E+00 -0.5277778E+00  0.0000000E+00  0.2040816E-01
    1      -13.480077   1.000000
    2      -13.455521   1.000000
    3      -13.284917   1.000000
    4      -13.282022   1.000000
    5       -6.368362   1.000000
    6       -6.359241   1.000000
    7       -6.334126   1.000000
    8       -6.323405   1.000000
    9       -4.937125   1.000000
   10       -4.926595   1.000000
   11       -4.561781   1.000000
   12       -4.546243   1.000000
   13       -4.430132   1.000000
   14       -4.402666   1.000000
   15       -3.201992   1.000000
   16       -3.197478   1.000000
   17       -1.779303   1.000000
   18       -1.663125   1.000000
   19        0.713137   0.000000
   20        0.728778   0.000000
   21        1.503421   0.000000
   22        1.600457   0.000000
   23        1.635040   0.000000
   24        1.644161   0.000000
   25        3.168815   0.000000
   26        3.222006   0.000000
 
 -0.2777778E+00 -0.5555556E+00  0.0000000E+00  0.2040816E-01
    1      -13.405398   1.000000
    2      -13.378479   1.000000
    3      -13.243918   1.000000
    4      -13.240814   1.000000
    5       -6.456045   1.000000
    6       -6.447582   1.000000
    7       -6.307502   1.000000
    8       -6.291313   1.000000
    9       -4.977662   1.000000
   10       -4.962826   1.000000
   11       -4.623085   1.000000
   12       -4.590718   1.000000
   13       -4.493819   1.000000
   14       -4.459759   1.000000
   15       -3.319140   1.000000
   16       -3.318041   1.000000
   17       -1.674483   1.000000
   18       -1.551589   1.000000
   19        0.641630   0.000000
   20        0.659765   0.000000
   21        1.581502   0.000000
   22        1.583670   0.000000
   23        1.690205   0.000000
   24        1.799306   0.000000
   25        3.233035   0.000000
   26        3.296970   0.000000
 
 -0.2916667E+00 -0.5833333E+00  0.0000000E+00  0.2040816E-01
    1      -13.348542   1.000000
    2      -13.319656   1.000000
    3      -13.211933   1.000000
    4      -13.208674   1.000000
    5       -6.550332   1.000000
    6       -6.542453   1.000000
    7       -6.215957   1.000000
    8       -6.194088   1.000000
    9       -5.066074   1.000000
   10       -5.041667   1.000000
   11       -4.747039   1.000000
   12       -4.732828   1.000000
   13       -4.427614   1.000000
   14       -4.391527   1.000000
   15       -3.431442   1.000000
   16       -3.423897   1.000000
   17       -1.575318   1.000000
   18       -1.444665   1.000000
   19        0.556308   0.000000
   20        0.570092   0.000000
   21        1.557249   0.000000
   22        1.576600   0.000000
   23        1.807988   0.000000
   24        1.940017   0.000000
   25        3.294267   0.000000
   26        3.366117   0.000000
 
 -0.3055556E+00 -0.6111111E+00  0.0000000E+00  0.2040816E-01
    1      -13.309475   1.000000
    2      -13.279121   1.000000
    3      -13.189349   1.000000
    4      -13.185987   1.000000
    5       -6.616565   1.000000
    6       -6.609125   1.000000
    7       -6.100560   1.000000
    8       -6.073048   1.000000
    9       -5.201103   1.000000
   10       -5.169927   1.000000
   11       -4.817951   1.000000
   12       -4.816958   1.000000
   13       -4.365677   1.000000
   14       -4.324400   1.000000
   15       -3.526012   1.000000
   16       -3.511349   1.000000
   17       -1.493409   1.000000
   18       -1.354853   1.000000
   19        0.476680   0.000000
   20        0.483343   0.000000
   21        1.529658   0.000000
   22        1.556210   0.000000
   23        1.909792   0.000000
   24        2.049115   0.000000
   25        3.345820   0.000000
   26        3.422943   0.000000
 
 -0.3194444E+00 -0.6388889E+00  0.0000000E+00  0.2040816E-01
    1      -13.287302   1.000000
    2      -13.256046   1.000000
    3      -13.176158   1.000000
    4      -13.172739   1.000000
    5       -6.655197   1.000000
    6       -6.648005   1.000000
    7       -5.982579   1.000000
    8       -5.949924   1.000000
    9       -5.337521   1.000000
   10       -5.305578   1.000000
   11       -4.859623   1.000000
   12       -4.854389   1.000000
   13       -4.321120   1.000000
   14       -4.274388   1.000000
   15       -3.590904   1.000000
   16       -3.569822   1.000000
   17       -1.439995   1.000000
   18       -1.295246   1.000000
   19        0.420748   0.000000
   20        0.421065   0.000000
   21        1.508208   0.000000
   22        1.537938   0.000000
   23        1.974043   0.000000
   24        2.116261   0.000000
   25        3.380886   0.000000
   26        3.460965   0.000000
 
 -0.3333333E+00 -0.6666667E+00  0.0000000E+00  0.2040816E-01
    1      -13.280378   1.000000
    2      -13.248820   1.000000
    3      -13.171942   1.000000
    4      -13.168503   1.000000
    5       -6.667617   1.000000
    6       -6.660502   1.000000
    7       -5.922758   1.000000
    8       -5.887510   1.000000
    9       -5.402309   1.000000
   10       -5.370968   1.000000
   11       -4.874935   1.000000
   12       -4.867614   1.000000
   13       -4.305112   1.000000
   14       -4.255948   1.000000
   15       -3.613838   1.000000
   16       -3.590026   1.000000
   17       -1.421984   1.000000
   18       -1.274874   1.000000
   19        0.398676   0.000000
   20        0.400895   0.000000
   21        1.499665   0.000000
   22        1.530296   0.000000
   23        1.995233   0.000000
   24        2.138172   0.000000
   25        3.393590   0.000000
   26        3.474607   0.000000
