       N       E                     dE             d eps       ncg     rms          rms(c)
DAV:   1     0.108720720706E+03    0.10872E+03   -0.57146E+03  2548   0.857E+02
DAV:   2    -0.839069366144E+01   -0.11711E+03   -0.11118E+03  3726   0.206E+02
DAV:   3    -0.205343552588E+02   -0.12144E+02   -0.11955E+02  3292   0.717E+01
DAV:   4    -0.209006969249E+02   -0.36634E+00   -0.36249E+00  3368   0.135E+01
DAV:   5    -0.209096218703E+02   -0.89249E-02   -0.88706E-02  3230   0.215E+00
DAV:   6    -0.209099218631E+02   -0.29999E-03   -0.29984E-03  3198   0.392E-01
DAV:   7    -0.209099338414E+02   -0.11978E-04   -0.11977E-04  3262   0.715E-02
DAV:   8    -0.209099343773E+02   -0.53589E-06   -0.53584E-06  2898   0.147E-02
   1 F= -.20909934E+02 E0= -.20909934E+02  d E =-.839188E-15  mag=     0.0000     0.0000    -0.0000
