    3    3    1    1
  0.4355789E+02  0.3171634E-09  0.3171634E-09  0.1500000E-08  0.5000000E-15
  1.000000000000000E-004
  CAR 
 1H-MoS2 public-CHGCAR SOC NSCF          
     18    162     26
 
  0.2727596E+00  0.5839214E+00  0.0000000E+00  0.6172840E-02
    1      -13.349281   1.000000
    2      -13.320537   1.000000
    3      -13.212815   1.000000
    4      -13.209573   1.000000
    5       -6.547548   1.000000
    6       -6.539678   1.000000
    7       -6.233914   1.000000
    8       -6.211717   1.000000
    9       -5.088203   1.000000
   10       -5.069131   1.000000
   11       -4.700218   1.000000
   12       -4.680560   1.000000
   13       -4.428307   1.000000
   14       -4.392170   1.000000
   15       -3.430568   1.000000
   16       -3.423347   1.000000
   17       -1.576715   1.000000
   18       -1.446512   1.000000
   19        0.561467   0.000000
   20        0.576138   0.000000
   21        1.567281   0.000000
   22        1.585995   0.000000
   23        1.804652   0.000000
   24        1.936413   0.000000
   25        3.285469   0.000000
   26        3.357003   0.000000
 
  0.2727596E+00  0.5970360E+00  0.0000000E+00  0.6172840E-02
    1      -13.330921   1.000000
    2      -13.301571   1.000000
    3      -13.202577   1.000000
    4      -13.199295   1.000000
    5       -6.577451   1.000000
    6       -6.569794   1.000000
    7       -6.201068   1.000000
    8       -6.176209   1.000000
    9       -5.145252   1.000000
   10       -5.126170   1.000000
   11       -4.714590   1.000000
   12       -4.697954   1.000000
   13       -4.401610   1.000000
   14       -4.363673   1.000000
   15       -3.472533   1.000000
   16       -3.462599   1.000000
   17       -1.540207   1.000000
   18       -1.406930   1.000000
   19        0.529399   0.000000
   20        0.541807   0.000000
   21        1.561262   0.000000
   22        1.583771   0.000000
   23        1.849358   0.000000
   24        1.985292   0.000000
   25        3.303504   0.000000
   26        3.377421   0.000000
 
  0.2727596E+00  0.6101506E+00  0.0000000E+00  0.6172840E-02
    1      -13.317667   1.000000
    2      -13.287879   1.000000
    3      -13.195164   1.000000
    4      -13.191856   1.000000
    5       -6.599021   1.000000
    6       -6.591520   1.000000
    7       -6.173510   1.000000
    8       -6.146347   1.000000
    9       -5.193512   1.000000
   10       -5.175190   1.000000
   11       -4.721924   1.000000
   12       -4.707011   1.000000
   13       -4.380319   1.000000
   14       -4.340654   1.000000
   15       -3.505169   1.000000
   16       -3.492910   1.000000
   17       -1.512204   1.000000
   18       -1.376420   1.000000
   19        0.504253   0.000000
   20        0.514629   0.000000
   21        1.556802   0.000000
   22        1.581686   0.000000
   23        1.883348   0.000000
   24        2.021902   0.000000
   25        3.316729   0.000000
   26        3.392321   0.000000
 
  0.2727596E+00  0.6232652E+00  0.0000000E+00  0.6172840E-02
    1      -13.309661   1.000000
    2      -13.279607   1.000000
    3      -13.190684   1.000000
    4      -13.187362   1.000000
    5       -6.612048   1.000000
    6       -6.604642   1.000000
    7       -6.154885   1.000000
    8       -6.126107   1.000000
    9       -5.225749   1.000000
   10       -5.208253   1.000000
   11       -4.725338   1.000000
   12       -4.711300   1.000000
   13       -4.366504   1.000000
   14       -4.325575   1.000000
   15       -3.526030   1.000000
   16       -3.512164   1.000000
   17       -1.494562   1.000000
   18       -1.357124   1.000000
   19        0.488177   0.000000
   20        0.497144   0.000000
   21        1.554054   0.000000
   22        1.580265   0.000000
   23        1.904550   0.000000
   24        2.044577   0.000000
   25        3.324791   0.000000
   26        3.401385   0.000000
 
  0.2727596E+00  0.6363798E+00  0.0000000E+00  0.6172840E-02
    1      -13.306985   1.000000
    2      -13.276843   1.000000
    3      -13.189179   1.000000
    4      -13.185852   1.000000
    5       -6.616404   1.000000
    6       -6.609029   1.000000
    7       -6.148265   1.000000
    8       -6.118899   1.000000
    9       -5.237081   1.000000
   10       -5.219930   1.000000
   11       -4.726329   1.000000
   12       -4.712559   1.000000
   13       -4.361701   1.000000
   14       -4.320305   1.000000
   15       -3.533226   1.000000
   16       -3.518781   1.000000
   17       -1.488528   1.000000
   18       -1.350512   1.000000
   19        0.482648   0.000000
   20        0.491112   0.000000
   21        1.553130   0.000000
   22        1.579771   0.000000
   23        1.911760   0.000000
   24        2.052264   0.000000
   25        3.327504   0.000000
   26        3.404427   0.000000
 
  0.2727596E+00  0.6494944E+00  0.0000000E+00  0.6172840E-02
    1      -13.309661   1.000000
    2      -13.279607   1.000000
    3      -13.190684   1.000000
    4      -13.187362   1.000000
    5       -6.612049   1.000000
    6       -6.604643   1.000000
    7       -6.154886   1.000000
    8       -6.126108   1.000000
    9       -5.225748   1.000000
   10       -5.208251   1.000000
   11       -4.725339   1.000000
   12       -4.711301   1.000000
   13       -4.366504   1.000000
   14       -4.325575   1.000000
   15       -3.526029   1.000000
   16       -3.512163   1.000000
   17       -1.494563   1.000000
   18       -1.357125   1.000000
   19        0.488178   0.000000
   20        0.497145   0.000000
   21        1.554053   0.000000
   22        1.580265   0.000000
   23        1.904550   0.000000
   24        2.044578   0.000000
   25        3.324816   0.000000
   26        3.401389   0.000000
 
  0.2727596E+00  0.6626090E+00  0.0000000E+00  0.6172840E-02
    1      -13.317667   1.000000
    2      -13.287879   1.000000
    3      -13.195163   1.000000
    4      -13.191855   1.000000
    5       -6.599022   1.000000
    6       -6.591521   1.000000
    7       -6.173511   1.000000
    8       -6.146348   1.000000
    9       -5.193509   1.000000
   10       -5.175188   1.000000
   11       -4.721926   1.000000
   12       -4.707013   1.000000
   13       -4.380319   1.000000
   14       -4.340654   1.000000
   15       -3.505168   1.000000
   16       -3.492909   1.000000
   17       -1.512205   1.000000
   18       -1.376421   1.000000
   19        0.504254   0.000000
   20        0.514629   0.000000
   21        1.556801   0.000000
   22        1.581685   0.000000
   23        1.883348   0.000000
   24        2.021903   0.000000
   25        3.316727   0.000000
   26        3.392321   0.000000
 
  0.2727596E+00  0.6757236E+00  0.0000000E+00  0.6172840E-02
    1      -13.330921   1.000000
    2      -13.301572   1.000000
    3      -13.202576   1.000000
    4      -13.199294   1.000000
    5       -6.577453   1.000000
    6       -6.569796   1.000000
    7       -6.201069   1.000000
    8       -6.176210   1.000000
    9       -5.145249   1.000000
   10       -5.126167   1.000000
   11       -4.714593   1.000000
   12       -4.697957   1.000000
   13       -4.401610   1.000000
   14       -4.363673   1.000000
   15       -3.472532   1.000000
   16       -3.462598   1.000000
   17       -1.540209   1.000000
   18       -1.406931   1.000000
   19        0.529400   0.000000
   20        0.541808   0.000000
   21        1.561261   0.000000
   22        1.583770   0.000000
   23        1.849359   0.000000
   24        1.985293   0.000000
   25        3.303505   0.000000
   26        3.377418   0.000000
 
  0.2727596E+00  0.6888382E+00  0.0000000E+00  0.6172840E-02
    1      -13.349282   1.000000
    2      -13.320538   1.000000
    3      -13.212814   1.000000
    4      -13.209572   1.000000
    5       -6.547550   1.000000
    6       -6.539680   1.000000
    7       -6.233915   1.000000
    8       -6.211718   1.000000
    9       -5.088199   1.000000
   10       -5.069126   1.000000
   11       -4.700222   1.000000
   12       -4.680564   1.000000
   13       -4.428307   1.000000
   14       -4.392170   1.000000
   15       -3.430566   1.000000
   16       -3.423345   1.000000
   17       -1.576717   1.000000
   18       -1.446514   1.000000
   19        0.561468   0.000000
   20        0.576139   0.000000
   21        1.567280   0.000000
   22        1.585994   0.000000
   23        1.804653   0.000000
   24        1.936414   0.000000
   25        3.285472   0.000000
   26        3.357022   0.000000
 
  0.2879030E+00  0.5914931E+00  0.0000000E+00  0.6172840E-02
    1      -13.335573   1.000000
    2      -13.306230   1.000000
    3      -13.204577   1.000000
    4      -13.201286   1.000000
    5       -6.571891   1.000000
    6       -6.564160   1.000000
    7       -6.187655   1.000000
    8       -6.164078   1.000000
    9       -5.104982   1.000000
   10       -5.079049   1.000000
   11       -4.764993   1.000000
   12       -4.754289   1.000000
   13       -4.408855   1.000000
   14       -4.371464   1.000000
   15       -3.460850   1.000000
   16       -3.451347   1.000000
   17       -1.549607   1.000000
   18       -1.416700   1.000000
   19        0.532737   0.000000
   20        0.544737   0.000000
   21        1.550651   0.000000
   22        1.572656   0.000000
   23        1.839928   0.000000
   24        1.974775   0.000000
   25        3.309055   0.000000
   26        3.382637   0.000000
 
  0.2879030E+00  0.6046077E+00  0.0000000E+00  0.6172840E-02
    1      -13.318390   1.000000
    2      -13.288434   1.000000
    3      -13.194780   1.000000
    4      -13.191448   1.000000
    5       -6.600551   1.000000
    6       -6.593018   1.000000
    7       -6.142819   1.000000
    8       -6.116567   1.000000
    9       -5.169234   1.000000
   10       -5.142507   1.000000
   11       -4.783954   1.000000
   12       -4.776991   1.000000
   13       -4.381399   1.000000
   14       -4.341724   1.000000
   15       -3.502799   1.000000
   16       -3.490222   1.000000
   17       -1.513420   1.000000
   18       -1.377123   1.000000
   19        0.498653   0.000000
   20        0.507720   0.000000
   21        1.541236   0.000000
   22        1.566289   0.000000
   23        1.884469   0.000000
   24        2.022516   0.000000
   25        3.329412   0.000000
   26        3.405250   0.000000
 
  0.2879030E+00  0.6177223E+00  0.0000000E+00  0.6172840E-02
    1      -13.305988   1.000000
    2      -13.275589   1.000000
    3      -13.187690   1.000000
    4      -13.184332   1.000000
    5       -6.621235   1.000000
    6       -6.613845   1.000000
    7       -6.104242   1.000000
    8       -6.075574   1.000000
    9       -5.226314   1.000000
   10       -5.200316   1.000000
   11       -4.793283   1.000000
   12       -4.788149   1.000000
   13       -4.359412   1.000000
   14       -4.317579   1.000000
   15       -3.535668   1.000000
   16       -3.520408   1.000000
   17       -1.485650   1.000000
   18       -1.346577   1.000000
   19        0.472058   0.000000
   20        0.478587   0.000000
   21        1.534330   0.000000
   22        1.561340   0.000000
   23        1.918053   0.000000
   24        2.058145   0.000000
   25        3.344350   0.000000
   26        3.421777   0.000000
 
  0.2879030E+00  0.6308369E+00  0.0000000E+00  0.6172840E-02
    1      -13.298497   1.000000
    2      -13.267830   1.000000
    3      -13.183397   1.000000
    4      -13.180023   1.000000
    5       -6.633727   1.000000
    6       -6.626426   1.000000
    7       -6.077463   1.000000
    8       -6.047016   1.000000
    9       -5.265732   1.000000
   10       -5.240762   1.000000
   11       -4.797513   1.000000
   12       -4.793197   1.000000
   13       -4.345087   1.000000
   14       -4.301676   1.000000
   15       -3.556808   1.000000
   16       -3.539668   1.000000
   17       -1.468136   1.000000
   18       -1.327228   1.000000
   19        0.455118   0.000000
   20        0.459920   0.000000
   21        1.530120   0.000000
   22        1.558238   0.000000
   23        1.938923   0.000000
   24        2.080171   0.000000
   25        3.353476   0.000000
   26        3.431848   0.000000
 
  0.2879030E+00  0.6439515E+00  0.0000000E+00  0.6172840E-02
    1      -13.295992   1.000000
    2      -13.265235   1.000000
    3      -13.181961   1.000000
    4      -13.178583   1.000000
    5       -6.637905   1.000000
    6       -6.630633   1.000000
    7       -6.067770   1.000000
    8       -6.036651   1.000000
    9       -5.279863   1.000000
   10       -5.255351   1.000000
   11       -4.798727   1.000000
   12       -4.794645   1.000000
   13       -4.340096   1.000000
   14       -4.296101   1.000000
   15       -3.564130   1.000000
   16       -3.546306   1.000000
   17       -1.462146   1.000000
   18       -1.320594   1.000000
   19        0.449289   0.000000
   20        0.453478   0.000000
   21        1.528701   0.000000
   22        1.557179   0.000000
   23        1.945998   0.000000
   24        2.087623   0.000000
   25        3.356546   0.000000
   26        3.435227   0.000000
 
  0.2879030E+00  0.6570661E+00  0.0000000E+00  0.6172840E-02
    1      -13.298497   1.000000
    2      -13.267830   1.000000
    3      -13.183397   1.000000
    4      -13.180023   1.000000
    5       -6.633728   1.000000
    6       -6.626426   1.000000
    7       -6.077464   1.000000
    8       -6.047016   1.000000
    9       -5.265731   1.000000
   10       -5.240761   1.000000
   11       -4.797514   1.000000
   12       -4.793198   1.000000
   13       -4.345087   1.000000
   14       -4.301676   1.000000
   15       -3.556808   1.000000
   16       -3.539668   1.000000
   17       -1.468137   1.000000
   18       -1.327228   1.000000
   19        0.455118   0.000000
   20        0.459921   0.000000
   21        1.530119   0.000000
   22        1.558237   0.000000
   23        1.938924   0.000000
   24        2.080172   0.000000
   25        3.353476   0.000000
   26        3.431848   0.000000
 
  0.2879030E+00  0.6701807E+00  0.0000000E+00  0.6172840E-02
    1      -13.305988   1.000000
    2      -13.275589   1.000000
    3      -13.187690   1.000000
    4      -13.184332   1.000000
    5       -6.621236   1.000000
    6       -6.613847   1.000000
    7       -6.104242   1.000000
    8       -6.075575   1.000000
    9       -5.226312   1.000000
   10       -5.200313   1.000000
   11       -4.793285   1.000000
   12       -4.788151   1.000000
   13       -4.359412   1.000000
   14       -4.317580   1.000000
   15       -3.535667   1.000000
   16       -3.520407   1.000000
   17       -1.485651   1.000000
   18       -1.346578   1.000000
   19        0.472059   0.000000
   20        0.478588   0.000000
   21        1.534330   0.000000
   22        1.561340   0.000000
   23        1.918054   0.000000
   24        2.058146   0.000000
   25        3.344350   0.000000
   26        3.421777   0.000000
 
  0.2879030E+00  0.6832953E+00  0.0000000E+00  0.6172840E-02
    1      -13.318390   1.000000
    2      -13.288435   1.000000
    3      -13.194779   1.000000
    4      -13.191447   1.000000
    5       -6.600553   1.000000
    6       -6.593020   1.000000
    7       -6.142820   1.000000
    8       -6.116568   1.000000
    9       -5.169230   1.000000
   10       -5.142503   1.000000
   11       -4.783957   1.000000
   12       -4.776995   1.000000
   13       -4.381400   1.000000
   14       -4.341724   1.000000
   15       -3.502797   1.000000
   16       -3.490220   1.000000
   17       -1.513421   1.000000
   18       -1.377124   1.000000
   19        0.498654   0.000000
   20        0.507722   0.000000
   21        1.541235   0.000000
   22        1.566288   0.000000
   23        1.884470   0.000000
   24        2.022517   0.000000
   25        3.329416   0.000000
   26        3.405256   0.000000
 
  0.2879030E+00  0.6964099E+00  0.0000000E+00  0.6172840E-02
    1      -13.335574   1.000000
    2      -13.306231   1.000000
    3      -13.204576   1.000000
    4      -13.201285   1.000000
    5       -6.571893   1.000000
    6       -6.564162   1.000000
    7       -6.187655   1.000000
    8       -6.164079   1.000000
    9       -5.104977   1.000000
   10       -5.079044   1.000000
   11       -4.764997   1.000000
   12       -4.754294   1.000000
   13       -4.408855   1.000000
   14       -4.371465   1.000000
   15       -3.460848   1.000000
   16       -3.451345   1.000000
   17       -1.549609   1.000000
   18       -1.416702   1.000000
   19        0.532738   0.000000
   20        0.544738   0.000000
   21        1.550650   0.000000
   22        1.572655   0.000000
   23        1.839929   0.000000
   24        1.974776   0.000000
   25        3.309058   0.000000
   26        3.382642   0.000000
 
  0.3030465E+00  0.5990648E+00  0.0000000E+00  0.6172840E-02
    1      -13.324343   1.000000
    2      -13.294565   1.000000
    3      -13.198036   1.000000
    4      -13.194713   1.000000
    5       -6.591108   1.000000
    6       -6.583501   1.000000
    7       -6.153488   1.000000
    8       -6.128394   1.000000
    9       -5.139358   1.000000
   10       -5.110455   1.000000
   11       -4.791400   1.000000
   12       -4.785454   1.000000
   13       -4.391290   1.000000
   14       -4.352467   1.000000
   15       -3.487691   1.000000
   16       -3.476173   1.000000
   17       -1.526202   1.000000
   18       -1.391019   1.000000
   19        0.509560   0.000000
   20        0.519460   0.000000
   21        1.541624   0.000000
   22        1.565730   0.000000
   23        1.869313   0.000000
   24        2.006244   0.000000
   25        3.324767   0.000000
   26        3.399891   0.000000
 
  0.3030465E+00  0.6121794E+00  0.0000000E+00  0.6172840E-02
    1      -13.308383   1.000000
    2      -13.277988   1.000000
    3      -13.188716   1.000000
    4      -13.185352   1.000000
    5       -6.618413   1.000000
    6       -6.610985   1.000000
    7       -6.096531   1.000000
    8       -6.068808   1.000000
    9       -5.206604   1.000000
   10       -5.175464   1.000000
   11       -4.819011   1.000000
   12       -4.818207   1.000000
   13       -4.363681   1.000000
   14       -4.322197   1.000000
   15       -3.528971   1.000000
   16       -3.514054   1.000000
   17       -1.490918   1.000000
   18       -1.352102   1.000000
   19        0.474220   0.000000
   20        0.480636   0.000000
   21        1.528906   0.000000
   22        1.555624   0.000000
   23        1.912807   0.000000
   24        2.052297   0.000000
   25        3.347269   0.000000
   26        3.424533   0.000000
 
  0.3030465E+00  0.6252940E+00  0.0000000E+00  0.6172840E-02
    1      -13.296874   1.000000
    2      -13.266033   1.000000
    3      -13.181973   1.000000
    4      -13.178581   1.000000
    5       -6.638131   1.000000
    6       -6.630835   1.000000
    7       -6.045972   1.000000
    8       -6.015774   1.000000
    9       -5.270439   1.000000
   10       -5.239486   1.000000
   11       -4.834821   1.000000
   12       -4.833193   1.000000
   13       -4.341504   1.000000
   14       -4.297504   1.000000
   15       -3.561527   1.000000
   16       -3.543605   1.000000
   17       -1.463854   1.000000
   18       -1.322057   1.000000
   19        0.446758   0.000000
   20        0.450225   0.000000
   21        1.519620   0.000000
   22        1.548029   0.000000
   23        1.945413   0.000000
   24        2.086534   0.000000
   25        3.363785   0.000000
   26        3.442562   0.000000
 
  0.3030465E+00  0.6384086E+00  0.0000000E+00  0.6172840E-02
    1      -13.289925   1.000000
    2      -13.258814   1.000000
    3      -13.177895   1.000000
    4      -13.174487   1.000000
    5       -6.650049   1.000000
    6       -6.642833   1.000000
    7       -6.009569   1.000000
    8       -5.977437   1.000000
    9       -5.316845   1.000000
   10       -5.286881   1.000000
   11       -4.842460   1.000000
   12       -4.839817   1.000000
   13       -4.327019   1.000000
   14       -4.281171   1.000000
   15       -3.582583   1.000000
   16       -3.562530   1.000000
   17       -1.446787   1.000000
   18       -1.303016   1.000000
   19        0.429310   0.000000
   20        0.430792   0.000000
   21        1.513964   0.000000
   22        1.543334   0.000000
   23        1.965597   0.000000
   24        2.107638   0.000000
   25        3.373868   0.000000
   26        3.453539   0.000000
 
  0.3030465E+00  0.6515232E+00  0.0000000E+00  0.6172840E-02
    1      -13.287602   1.000000
    2      -13.256402   1.000000
    3      -13.176531   1.000000
    4      -13.173118   1.000000
    5       -6.654039   1.000000
    6       -6.646849   1.000000
    7       -5.996034   1.000000
    8       -5.963135   1.000000
    9       -5.334017   1.000000
   10       -5.304565   1.000000
   11       -4.844671   1.000000
   12       -4.841752   1.000000
   13       -4.321967   1.000000
   14       -4.275432   1.000000
   15       -3.589901   1.000000
   16       -3.569068   1.000000
   17       -1.440950   1.000000
   18       -1.296487   1.000000
   19        0.423315   0.000000
   20        0.424096   0.000000
   21        1.512070   0.000000
   22        1.541752   0.000000
   23        1.972428   0.000000
   24        2.114767   0.000000
   25        3.377259   0.000000
   26        3.457225   0.000000
 
  0.3030465E+00  0.6646378E+00  0.0000000E+00  0.6172840E-02
    1      -13.289925   1.000000
    2      -13.258815   1.000000
    3      -13.177895   1.000000
    4      -13.174487   1.000000
    5       -6.650050   1.000000
    6       -6.642833   1.000000
    7       -6.009570   1.000000
    8       -5.977437   1.000000
    9       -5.316844   1.000000
   10       -5.286880   1.000000
   11       -4.842461   1.000000
   12       -4.839818   1.000000
   13       -4.327019   1.000000
   14       -4.281171   1.000000
   15       -3.582582   1.000000
   16       -3.562529   1.000000
   17       -1.446787   1.000000
   18       -1.303016   1.000000
   19        0.429311   0.000000
   20        0.430793   0.000000
   21        1.513964   0.000000
   22        1.543334   0.000000
   23        1.965597   0.000000
   24        2.107638   0.000000
   25        3.373869   0.000000
   26        3.453538   0.000000
 
  0.3030465E+00  0.6777524E+00  0.0000000E+00  0.6172840E-02
    1      -13.296875   1.000000
    2      -13.266034   1.000000
    3      -13.181973   1.000000
    4      -13.178581   1.000000
    5       -6.638132   1.000000
    6       -6.630836   1.000000
    7       -6.045973   1.000000
    8       -6.015774   1.000000
    9       -5.270437   1.000000
   10       -5.239484   1.000000
   11       -4.834823   1.000000
   12       -4.833195   1.000000
   13       -4.341504   1.000000
   14       -4.297505   1.000000
   15       -3.561526   1.000000
   16       -3.543603   1.000000
   17       -1.463855   1.000000
   18       -1.322058   1.000000
   19        0.446759   0.000000
   20        0.450226   0.000000
   21        1.519620   0.000000
   22        1.548028   0.000000
   23        1.945413   0.000000
   24        2.086535   0.000000
   25        3.363784   0.000000
   26        3.442559   0.000000
 
  0.3030465E+00  0.6908670E+00  0.0000000E+00  0.6172840E-02
    1      -13.308384   1.000000
    2      -13.277989   1.000000
    3      -13.188716   1.000000
    4      -13.185351   1.000000
    5       -6.618415   1.000000
    6       -6.610987   1.000000
    7       -6.096532   1.000000
    8       -6.068808   1.000000
    9       -5.206601   1.000000
   10       -5.175461   1.000000
   11       -4.819014   1.000000
   12       -4.818211   1.000000
   13       -4.363681   1.000000
   14       -4.322198   1.000000
   15       -3.528969   1.000000
   16       -3.514052   1.000000
   17       -1.490919   1.000000
   18       -1.352103   1.000000
   19        0.474221   0.000000
   20        0.480637   0.000000
   21        1.528905   0.000000
   22        1.555623   0.000000
   23        1.912808   0.000000
   24        2.052298   0.000000
   25        3.347269   0.000000
   26        3.424545   0.000000
 
  0.3030465E+00  0.7039816E+00  0.0000000E+00  0.6172840E-02
    1      -13.324344   1.000000
    2      -13.294565   1.000000
    3      -13.198035   1.000000
    4      -13.194712   1.000000
    5       -6.591110   1.000000
    6       -6.583503   1.000000
    7       -6.153488   1.000000
    8       -6.128395   1.000000
    9       -5.139354   1.000000
   10       -5.110451   1.000000
   11       -4.791404   1.000000
   12       -4.785458   1.000000
   13       -4.391291   1.000000
   14       -4.352468   1.000000
   15       -3.487689   1.000000
   16       -3.476171   1.000000
   17       -1.526204   1.000000
   18       -1.391021   1.000000
   19        0.509561   0.000000
   20        0.519461   0.000000
   21        1.541623   0.000000
   22        1.565729   0.000000
   23        1.869314   0.000000
   24        2.006245   0.000000
   25        3.324766   0.000000
   26        3.399890   0.000000
 
  0.3181899E+00  0.6066365E+00  0.0000000E+00  0.6172840E-02
    1      -13.316047   1.000000
    2      -13.286003   1.000000
    3      -13.193426   1.000000
    4      -13.190088   1.000000
    5       -6.604523   1.000000
    6       -6.597016   1.000000
    7       -6.135218   1.000000
    8       -6.108569   1.000000
    9       -5.178752   1.000000
   10       -5.151826   1.000000
   11       -4.787489   1.000000
   12       -4.781161   1.000000
   13       -4.377393   1.000000
   14       -4.337343   1.000000
   15       -3.508815   1.000000
   16       -3.495755   1.000000
   17       -1.508277   1.000000
   18       -1.371462   1.000000
   19        0.493597   0.000000
   20        0.502181   0.000000
   21        1.539573   0.000000
   22        1.565015   0.000000
   23        1.890792   0.000000
   24        2.029230   0.000000
   25        3.332535   0.000000
   26        3.408686   0.000000
 
  0.3181899E+00  0.6197511E+00  0.0000000E+00  0.6172840E-02
    1      -13.301357   1.000000
    2      -13.270695   1.000000
    3      -13.184622   1.000000
    4      -13.181241   1.000000
    5       -6.630372   1.000000
    6       -6.623025   1.000000
    7       -6.067903   1.000000
    8       -6.038721   1.000000
    9       -5.244149   1.000000
   10       -5.213235   1.000000
   11       -4.827133   1.000000
   12       -4.826621   1.000000
   13       -4.350410   1.000000
   14       -4.307470   1.000000
   15       -3.548526   1.000000
   16       -3.531857   1.000000
   17       -1.474583   1.000000
   18       -1.334008   1.000000
   19        0.457856   0.000000
   20        0.462558   0.000000
   21        1.523652   0.000000
   22        1.551415   0.000000
   23        1.932511   0.000000
   24        2.073028   0.000000
   25        3.356976   0.000000
   26        3.435156   0.000000
 
  0.3181899E+00  0.6328657E+00  0.0000000E+00  0.6172840E-02
    1      -13.290776   1.000000
    2      -13.259667   1.000000
    3      -13.178255   1.000000
    4      -13.174844   1.000000
    5       -6.649055   1.000000
    6       -6.641824   1.000000
    7       -6.006493   1.000000
    8       -5.974860   1.000000
    9       -5.310790   1.000000
   10       -5.278756   1.000000
   11       -4.852588   1.000000
   12       -4.848334   1.000000
   13       -4.328719   1.000000
   14       -4.283043   1.000000
   15       -3.579966   1.000000
   16       -3.560088   1.000000
   17       -1.448774   1.000000
   18       -1.305116   1.000000
   19        0.430202   0.000000
   20        0.431672   0.000000
   21        1.512052   0.000000
   22        1.541315   0.000000
   23        1.963634   0.000000
   24        2.105454   0.000000
   25        3.374918   0.000000
   26        3.454532   0.000000
 
  0.3181899E+00  0.6459803E+00  0.0000000E+00  0.6172840E-02
    1      -13.284388   1.000000
    2      -13.253010   1.000000
    3      -13.174403   1.000000
    4      -13.170976   1.000000
    5       -6.660351   1.000000
    6       -6.653192   1.000000
    7       -5.960608   1.000000
    8       -5.926952   1.000000
    9       -5.362359   1.000000
   10       -5.330748   1.000000
   11       -4.864901   1.000000
   12       -4.858963   1.000000
   13       -4.314544   1.000000
   14       -4.266854   1.000000
   15       -3.600356   1.000000
   16       -3.578193   1.000000
   17       -1.432514   1.000000
   18       -1.286816   1.000000
   19        0.411997   0.000000
   20        0.412681   0.000000
   21        1.505002   0.000000
   22        1.535116   0.000000
   23        1.982840   0.000000
   24        2.125384   0.000000
   25        3.385882   0.000000
   26        3.466349   0.000000
 
  0.3181899E+00  0.6590949E+00  0.0000000E+00  0.6172840E-02
    1      -13.282255   1.000000
    2      -13.250786   1.000000
    3      -13.173118   1.000000
    4      -13.169686   1.000000
    5       -6.664132   1.000000
    6       -6.656997   1.000000
    7       -5.943007   1.000000
    8       -5.908505   1.000000
    9       -5.382250   1.000000
   10       -5.351040   1.000000
   11       -4.868546   1.000000
   12       -4.862137   1.000000
   13       -4.309601   1.000000
   14       -4.261162   1.000000
   15       -3.607455   1.000000
   16       -3.584454   1.000000
   17       -1.426964   1.000000
   18       -1.280550   1.000000
   19        0.405235   0.000000
   20        0.406677   0.000000
   21        1.502629   0.000000
   22        1.533019   0.000000
   23        1.989327   0.000000
   24        2.132105   0.000000
   25        3.389562   0.000000
   26        3.470311   0.000000
 
  0.3181899E+00  0.6722095E+00  0.0000000E+00  0.6172840E-02
    1      -13.284389   1.000000
    2      -13.253010   1.000000
    3      -13.174403   1.000000
    4      -13.170976   1.000000
    5       -6.660352   1.000000
    6       -6.653193   1.000000
    7       -5.960608   1.000000
    8       -5.926952   1.000000
    9       -5.362358   1.000000
   10       -5.330747   1.000000
   11       -4.864902   1.000000
   12       -4.858964   1.000000
   13       -4.314544   1.000000
   14       -4.266854   1.000000
   15       -3.600356   1.000000
   16       -3.578193   1.000000
   17       -1.432514   1.000000
   18       -1.286817   1.000000
   19        0.411997   0.000000
   20        0.412682   0.000000
   21        1.505002   0.000000
   22        1.535116   0.000000
   23        1.982840   0.000000
   24        2.125384   0.000000
   25        3.385882   0.000000
   26        3.466348   0.000000
 
  0.3181899E+00  0.6853242E+00  0.0000000E+00  0.6172840E-02
    1      -13.290776   1.000000
    2      -13.259667   1.000000
    3      -13.178254   1.000000
    4      -13.174844   1.000000
    5       -6.649056   1.000000
    6       -6.641826   1.000000
    7       -6.006494   1.000000
    8       -5.974860   1.000000
    9       -5.310788   1.000000
   10       -5.278754   1.000000
   11       -4.852590   1.000000
   12       -4.848336   1.000000
   13       -4.328720   1.000000
   14       -4.283044   1.000000
   15       -3.579964   1.000000
   16       -3.560086   1.000000
   17       -1.448774   1.000000
   18       -1.305117   1.000000
   19        0.430203   0.000000
   20        0.431673   0.000000
   21        1.512052   0.000000
   22        1.541314   0.000000
   23        1.963635   0.000000
   24        2.105454   0.000000
   25        3.374919   0.000000
   26        3.454532   0.000000
 
  0.3181899E+00  0.6984388E+00  0.0000000E+00  0.6172840E-02
    1      -13.301357   1.000000
    2      -13.270695   1.000000
    3      -13.184621   1.000000
    4      -13.181240   1.000000
    5       -6.630374   1.000000
    6       -6.623027   1.000000
    7       -6.067903   1.000000
    8       -6.038722   1.000000
    9       -5.244147   1.000000
   10       -5.213233   1.000000
   11       -4.827136   1.000000
   12       -4.826623   1.000000
   13       -4.350410   1.000000
   14       -4.307471   1.000000
   15       -3.548524   1.000000
   16       -3.531855   1.000000
   17       -1.474585   1.000000
   18       -1.334009   1.000000
   19        0.457857   0.000000
   20        0.462559   0.000000
   21        1.523651   0.000000
   22        1.551414   0.000000
   23        1.932512   0.000000
   24        2.073029   0.000000
   25        3.356978   0.000000
   26        3.435160   0.000000
 
  0.3181899E+00  0.7115534E+00  0.0000000E+00  0.6172840E-02
    1      -13.316048   1.000000
    2      -13.286004   1.000000
    3      -13.193425   1.000000
    4      -13.190087   1.000000
    5       -6.604525   1.000000
    6       -6.597018   1.000000
    7       -6.135218   1.000000
    8       -6.108569   1.000000
    9       -5.178749   1.000000
   10       -5.151823   1.000000
   11       -4.787491   1.000000
   12       -4.781164   1.000000
   13       -4.377394   1.000000
   14       -4.337344   1.000000
   15       -3.508812   1.000000
   16       -3.495752   1.000000
   17       -1.508278   1.000000
   18       -1.371464   1.000000
   19        0.493598   0.000000
   20        0.502182   0.000000
   21        1.539572   0.000000
   22        1.565014   0.000000
   23        1.890793   0.000000
   24        2.029231   0.000000
   25        3.332528   0.000000
   26        3.408679   0.000000
 
  0.3333333E+00  0.6142083E+00  0.0000000E+00  0.6172840E-02
    1      -13.311115   1.000000
    2      -13.280979   1.000000
    3      -13.190956   1.000000
    4      -13.187619   1.000000
    5       -6.611541   1.000000
    6       -6.604102   1.000000
    7       -6.135405   1.000000
    8       -6.107440   1.000000
    9       -5.209103   1.000000
   10       -5.186517   1.000000
   11       -4.764225   1.000000
   12       -4.754753   1.000000
   13       -4.368865   1.000000
   14       -4.328070   1.000000
   15       -3.521931   1.000000
   16       -3.508040   1.000000
   17       -1.497499   1.000000
   18       -1.359900   1.000000
   19        0.486262   0.000000
   20        0.494496   0.000000
   21        1.543762   0.000000
   22        1.569896   0.000000
   23        1.902741   0.000000
   24        2.042203   0.000000
   25        3.332534   0.000000
   26        3.409171   0.000000
 
  0.3333333E+00  0.6273229E+00  0.0000000E+00  0.6172840E-02
    1      -13.297751   1.000000
    2      -13.266997   1.000000
    3      -13.182714   1.000000
    4      -13.179331   1.000000
    5       -6.635848   1.000000
    6       -6.628548   1.000000
    7       -6.061813   1.000000
    8       -6.031500   1.000000
    9       -5.267411   1.000000
   10       -5.239502   1.000000
   11       -4.815882   1.000000
   12       -4.814482   1.000000
   13       -4.343426   1.000000
   14       -4.299738   1.000000
   15       -3.558970   1.000000
   16       -3.541453   1.000000
   17       -1.466152   1.000000
   18       -1.324811   1.000000
   19        0.451014   0.000000
   20        0.455149   0.000000
   21        1.524726   0.000000
   22        1.552984   0.000000
   23        1.942013   0.000000
   24        2.083185   0.000000
   25        3.358697   0.000000
   26        3.437293   0.000000
 
  0.3333333E+00  0.6404375E+00  0.0000000E+00  0.6172840E-02
    1      -13.288127   1.000000
    2      -13.256927   1.000000
    3      -13.176754   1.000000
    4      -13.173339   1.000000
    5       -6.653426   1.000000
    6       -6.646228   1.000000
    7       -5.994101   1.000000
    8       -5.961530   1.000000
    9       -5.330458   1.000000
   10       -5.299759   1.000000
   11       -4.850729   1.000000
   12       -4.846866   1.000000
   13       -4.323035   1.000000
   14       -4.276612   1.000000
   15       -3.588262   1.000000
   16       -3.567543   1.000000
   17       -1.442189   1.000000
   18       -1.297797   1.000000
   19        0.423880   0.000000
   20        0.424655   0.000000
   21        1.510885   0.000000
   22        1.540501   0.000000
   23        1.971206   0.000000
   24        2.113408   0.000000
   25        3.377937   0.000000
   26        3.457934   0.000000
 
  0.3333333E+00  0.6535521E+00  0.0000000E+00  0.6172840E-02
    1      -13.282318   1.000000
    2      -13.250849   1.000000
    3      -13.173142   1.000000
    4      -13.169709   1.000000
    5       -6.664055   1.000000
    6       -6.656918   1.000000
    7       -5.942745   1.000000
    8       -5.908296   1.000000
    9       -5.381834   1.000000
   10       -5.350451   1.000000
   11       -4.869294   1.000000
   12       -4.862762   1.000000
   13       -4.309740   1.000000
   14       -4.261317   1.000000
   15       -3.607237   1.000000
   16       -3.584253   1.000000
   17       -1.427114   1.000000
   18       -1.280710   1.000000
   19        0.405308   0.000000
   20        0.406750   0.000000
   21        1.502490   0.000000
   22        1.532872   0.000000
   23        1.989175   0.000000
   24        2.131935   0.000000
   25        3.389648   0.000000
   26        3.470393   0.000000
 
  0.3333333E+00  0.6666667E+00  0.0000000E+00  0.6172840E-02
    1      -13.280378   1.000000
    2      -13.248820   1.000000
    3      -13.171942   1.000000
    4      -13.168503   1.000000
    5       -6.667617   1.000000
    6       -6.660502   1.000000
    7       -5.922758   1.000000
    8       -5.887510   1.000000
    9       -5.402309   1.000000
   10       -5.370968   1.000000
   11       -4.874935   1.000000
   12       -4.867614   1.000000
   13       -4.305112   1.000000
   14       -4.255948   1.000000
   15       -3.613838   1.000000
   16       -3.590026   1.000000
   17       -1.421984   1.000000
   18       -1.274874   1.000000
   19        0.398676   0.000000
   20        0.400895   0.000000
   21        1.499665   0.000000
   22        1.530296   0.000000
   23        1.995234   0.000000
   24        2.138172   0.000000
   25        3.393590   0.000000
   26        3.474605   0.000000
 
  0.3333333E+00  0.6797813E+00  0.0000000E+00  0.6172840E-02
    1      -13.282319   1.000000
    2      -13.250850   1.000000
    3      -13.173142   1.000000
    4      -13.169709   1.000000
    5       -6.664055   1.000000
    6       -6.656919   1.000000
    7       -5.942745   1.000000
    8       -5.908296   1.000000
    9       -5.381834   1.000000
   10       -5.350450   1.000000
   11       -4.869295   1.000000
   12       -4.862763   1.000000
   13       -4.309741   1.000000
   14       -4.261317   1.000000
   15       -3.607236   1.000000
   16       -3.584252   1.000000
   17       -1.427114   1.000000
   18       -1.280711   1.000000
   19        0.405309   0.000000
   20        0.406751   0.000000
   21        1.502489   0.000000
   22        1.532872   0.000000
   23        1.989175   0.000000
   24        2.131935   0.000000
   25        3.389649   0.000000
   26        3.470393   0.000000
 
  0.3333333E+00  0.6928959E+00  0.0000000E+00  0.6172840E-02
    1      -13.288127   1.000000
    2      -13.256927   1.000000
    3      -13.176753   1.000000
    4      -13.173339   1.000000
    5       -6.653428   1.000000
    6       -6.646230   1.000000
    7       -5.994101   1.000000
    8       -5.961530   1.000000
    9       -5.330457   1.000000
   10       -5.299758   1.000000
   11       -4.850730   1.000000
   12       -4.846867   1.000000
   13       -4.323035   1.000000
   14       -4.276613   1.000000
   15       -3.588260   1.000000
   16       -3.567542   1.000000
   17       -1.442190   1.000000
   18       -1.297798   1.000000
   19        0.423880   0.000000
   20        0.424656   0.000000
   21        1.510884   0.000000
   22        1.540500   0.000000
   23        1.971206   0.000000
   24        2.113409   0.000000
   25        3.377905   0.000000
   26        3.457838   0.000000
 
  0.3333333E+00  0.7060105E+00  0.0000000E+00  0.6172840E-02
    1      -13.297751   1.000000
    2      -13.266997   1.000000
    3      -13.182714   1.000000
    4      -13.179331   1.000000
    5       -6.635850   1.000000
    6       -6.628550   1.000000
    7       -6.061813   1.000000
    8       -6.031500   1.000000
    9       -5.267410   1.000000
   10       -5.239500   1.000000
   11       -4.815884   1.000000
   12       -4.814484   1.000000
   13       -4.343427   1.000000
   14       -4.299739   1.000000
   15       -3.558967   1.000000
   16       -3.541451   1.000000
   17       -1.466154   1.000000
   18       -1.324812   1.000000
   19        0.451015   0.000000
   20        0.455151   0.000000
   21        1.524725   0.000000
   22        1.552983   0.000000
   23        1.942014   0.000000
   24        2.083186   0.000000
   25        3.358695   0.000000
   26        3.437263   0.000000
 
  0.3333333E+00  0.7191251E+00  0.0000000E+00  0.6172840E-02
    1      -13.311116   1.000000
    2      -13.280980   1.000000
    3      -13.190955   1.000000
    4      -13.187618   1.000000
    5       -6.611543   1.000000
    6       -6.604104   1.000000
    7       -6.135405   1.000000
    8       -6.107440   1.000000
    9       -5.209102   1.000000
   10       -5.186516   1.000000
   11       -4.764226   1.000000
   12       -4.754755   1.000000
   13       -4.368866   1.000000
   14       -4.328071   1.000000
   15       -3.521928   1.000000
   16       -3.508038   1.000000
   17       -1.497501   1.000000
   18       -1.359902   1.000000
   19        0.486263   0.000000
   20        0.494498   0.000000
   21        1.543761   0.000000
   22        1.569895   0.000000
   23        1.902742   0.000000
   24        2.042204   0.000000
   25        3.332534   0.000000
   26        3.409170   0.000000
 
  0.3484768E+00  0.6217800E+00  0.0000000E+00  0.6172840E-02
    1      -13.309983   1.000000
    2      -13.279930   1.000000
    3      -13.190823   1.000000
    4      -13.187500   1.000000
    5       -6.611668   1.000000
    6       -6.604256   1.000000
    7       -6.153893   1.000000
    8       -6.125220   1.000000
    9       -5.223678   1.000000
   10       -5.205809   1.000000
   11       -4.728171   1.000000
   12       -4.714423   1.000000
   13       -4.367057   1.000000
   14       -4.326175   1.000000
   15       -3.525157   1.000000
   16       -3.511333   1.000000
   17       -1.495258   1.000000
   18       -1.357853   1.000000
   19        0.488454   0.000000
   20        0.497403   0.000000
   21        1.553324   0.000000
   22        1.579496   0.000000
   23        1.903847   0.000000
   24        2.043793   0.000000
   25        3.325194   0.000000
   26        3.401790   0.000000
 
  0.3484768E+00  0.6348946E+00  0.0000000E+00  0.6172840E-02
    1      -13.297977   1.000000
    2      -13.267309   1.000000
    3      -13.183177   1.000000
    4      -13.179805   1.000000
    5       -6.634336   1.000000
    6       -6.627043   1.000000
    7       -6.079204   1.000000
    8       -6.048530   1.000000
    9       -5.269346   1.000000
   10       -5.245299   1.000000
   11       -4.792533   1.000000
   12       -4.787491   1.000000
   13       -4.344112   1.000000
   14       -4.300613   1.000000
   15       -3.558325   1.000000
   16       -3.541097   1.000000
   17       -1.466961   1.000000
   18       -1.325991   1.000000
   19        0.454610   0.000000
   20        0.459430   0.000000
   21        1.531292   0.000000
   22        1.559475   0.000000
   23        1.940094   0.000000
   24        2.081477   0.000000
   25        3.352838   0.000000
   26        3.431245   0.000000
 
  0.3484768E+00  0.6480092E+00  0.0000000E+00  0.6172840E-02
    1      -13.289335   1.000000
    2      -13.258224   1.000000
    3      -13.177645   1.000000
    4      -13.174239   1.000000
    5       -6.650736   1.000000
    6       -6.643529   1.000000
    7       -6.011700   1.000000
    8       -5.979225   1.000000
    9       -5.320894   1.000000
   10       -5.292275   1.000000
   11       -4.835674   1.000000
   12       -4.834061   1.000000
   13       -4.325836   1.000000
   14       -4.279867   1.000000
   15       -3.584403   1.000000
   16       -3.564227   1.000000
   17       -1.445404   1.000000
   18       -1.301555   1.000000
   19        0.428685   0.000000
   20        0.430175   0.000000
   21        1.515296   0.000000
   22        1.544740   0.000000
   23        1.966962   0.000000
   24        2.109156   0.000000
   25        3.373140   0.000000
   26        3.452864   0.000000
 
  0.3484768E+00  0.6611238E+00  0.0000000E+00  0.6172840E-02
    1      -13.284127   1.000000
    2      -13.252748   1.000000
    3      -13.174295   1.000000
    4      -13.170869   1.000000
    5       -6.660659   1.000000
    6       -6.653504   1.000000
    7       -5.961622   1.000000
    8       -5.927772   1.000000
    9       -5.364075   1.000000
   10       -5.333137   1.000000
   11       -4.861873   1.000000
   12       -4.856426   1.000000
   13       -4.313992   1.000000
   14       -4.266240   1.000000
   15       -3.601205   1.000000
   16       -3.578979   1.000000
   17       -1.431887   1.000000
   18       -1.286151   1.000000
   19        0.411701   0.000000
   20        0.412385   0.000000
   21        1.505589   0.000000
   22        1.535736   0.000000
   23        1.983455   0.000000
   24        2.126068   0.000000
   25        3.385553   0.000000
   26        3.466037   0.000000
 
  0.3484768E+00  0.6742384E+00  0.0000000E+00  0.6172840E-02
    1      -13.282383   1.000000
    2      -13.250914   1.000000
    3      -13.173172   1.000000
    4      -13.169739   1.000000
    5       -6.663980   1.000000
    6       -6.656843   1.000000
    7       -5.942486   1.000000
    8       -5.908090   1.000000
    9       -5.381417   1.000000
   10       -5.349860   1.000000
   11       -4.870048   1.000000
   12       -4.863393   1.000000
   13       -4.309881   1.000000
   14       -4.261474   1.000000
   15       -3.607021   1.000000
   16       -3.584053   1.000000
   17       -1.427270   1.000000
   18       -1.280876   1.000000
   19        0.405386   0.000000
   20        0.406828   0.000000
   21        1.502343   0.000000
   22        1.532717   0.000000
   23        1.989024   0.000000
   24        2.131766   0.000000
   25        3.389729   0.000000
   26        3.470470   0.000000
 
  0.3484768E+00  0.6873530E+00  0.0000000E+00  0.6172840E-02
    1      -13.284127   1.000000
    2      -13.252748   1.000000
    3      -13.174295   1.000000
    4      -13.170869   1.000000
    5       -6.660659   1.000000
    6       -6.653504   1.000000
    7       -5.961622   1.000000
    8       -5.927772   1.000000
    9       -5.364074   1.000000
   10       -5.333137   1.000000
   11       -4.861873   1.000000
   12       -4.856426   1.000000
   13       -4.313993   1.000000
   14       -4.266241   1.000000
   15       -3.601204   1.000000
   16       -3.578978   1.000000
   17       -1.431888   1.000000
   18       -1.286152   1.000000
   19        0.411701   0.000000
   20        0.412386   0.000000
   21        1.505589   0.000000
   22        1.535736   0.000000
   23        1.983455   0.000000
   24        2.126069   0.000000
   25        3.385553   0.000000
   26        3.466036   0.000000
 
  0.3484768E+00  0.7004676E+00  0.0000000E+00  0.6172840E-02
    1      -13.289336   1.000000
    2      -13.258224   1.000000
    3      -13.177644   1.000000
    4      -13.174238   1.000000
    5       -6.650737   1.000000
    6       -6.643530   1.000000
    7       -6.011700   1.000000
    8       -5.979225   1.000000
    9       -5.320894   1.000000
   10       -5.292275   1.000000
   11       -4.835675   1.000000
   12       -4.834061   1.000000
   13       -4.325836   1.000000
   14       -4.279868   1.000000
   15       -3.584402   1.000000
   16       -3.564225   1.000000
   17       -1.445404   1.000000
   18       -1.301556   1.000000
   19        0.428686   0.000000
   20        0.430176   0.000000
   21        1.515296   0.000000
   22        1.544740   0.000000
   23        1.966962   0.000000
   24        2.109156   0.000000
   25        3.373143   0.000000
   26        3.452850   0.000000
 
  0.3484768E+00  0.7135822E+00  0.0000000E+00  0.6172840E-02
    1      -13.297977   1.000000
    2      -13.267309   1.000000
    3      -13.183177   1.000000
    4      -13.179805   1.000000
    5       -6.634338   1.000000
    6       -6.627044   1.000000
    7       -6.079204   1.000000
    8       -6.048530   1.000000
    9       -5.269346   1.000000
   10       -5.245299   1.000000
   11       -4.792534   1.000000
   12       -4.787492   1.000000
   13       -4.344113   1.000000
   14       -4.300614   1.000000
   15       -3.558323   1.000000
   16       -3.541095   1.000000
   17       -1.466962   1.000000
   18       -1.325993   1.000000
   19        0.454611   0.000000
   20        0.459431   0.000000
   21        1.531291   0.000000
   22        1.559475   0.000000
   23        1.940095   0.000000
   24        2.081477   0.000000
   25        3.352835   0.000000
   26        3.431244   0.000000
 
  0.3484768E+00  0.7266968E+00  0.0000000E+00  0.6172840E-02
    1      -13.309983   1.000000
    2      -13.279930   1.000000
    3      -13.190822   1.000000
    4      -13.187499   1.000000
    5       -6.611670   1.000000
    6       -6.604259   1.000000
    7       -6.153893   1.000000
    8       -6.125220   1.000000
    9       -5.223678   1.000000
   10       -5.205809   1.000000
   11       -4.728172   1.000000
   12       -4.714424   1.000000
   13       -4.367058   1.000000
   14       -4.326176   1.000000
   15       -3.525154   1.000000
   16       -3.511331   1.000000
   17       -1.495260   1.000000
   18       -1.357854   1.000000
   19        0.488456   0.000000
   20        0.497404   0.000000
   21        1.553323   0.000000
   22        1.579495   0.000000
   23        1.903848   0.000000
   24        2.043794   0.000000
   25        3.325187   0.000000
   26        3.401770   0.000000
 
  0.3636202E+00  0.6293517E+00  0.0000000E+00  0.6172840E-02
    1      -13.313042   1.000000
    2      -13.283247   1.000000
    3      -13.193181   1.000000
    4      -13.189884   1.000000
    5       -6.604482   1.000000
    6       -6.597052   1.000000
    7       -6.187353   1.000000
    8       -6.158826   1.000000
    9       -5.222530   1.000000
   10       -5.208854   1.000000
   11       -4.682372   1.000000
   12       -4.663828   1.000000
   13       -4.372647   1.000000
   14       -4.332330   1.000000
   15       -3.517390   1.000000
   16       -3.504584   1.000000
   17       -1.502402   1.000000
   18       -1.366192   1.000000
   19        0.500446   0.000000
   20        0.511135   0.000000
   21        1.567295   0.000000
   22        1.592735   0.000000
   23        1.893252   0.000000
   24        2.032959   0.000000
   25        3.311103   0.000000
   26        3.387029   0.000000
 
  0.3636202E+00  0.6424663E+00  0.0000000E+00  0.6172840E-02
    1      -13.302424   1.000000
    2      -13.272019   1.000000
    3      -13.186160   1.000000
    4      -13.182811   1.000000
    5       -6.625414   1.000000
    6       -6.618082   1.000000
    7       -6.115711   1.000000
    8       -6.085680   1.000000
    9       -5.251565   1.000000
   10       -5.231304   1.000000
   11       -4.759100   1.000000
   12       -4.749385   1.000000
   13       -4.353009   1.000000
   14       -4.310627   1.000000
   15       -3.545691   1.000000
   16       -3.529901   1.000000
   17       -1.477760   1.000000
   18       -1.338302   1.000000
   19        0.468788   0.000000
   20        0.475480   0.000000
   21        1.542405   0.000000
   22        1.569856   0.000000
   23        1.925946   0.000000
   24        2.066943   0.000000
   25        3.340003   0.000000
   26        3.417675   0.000000
 
  0.3636202E+00  0.6555809E+00  0.0000000E+00  0.6172840E-02
    1      -13.294787   1.000000
    2      -13.263942   1.000000
    3      -13.181081   1.000000
    4      -13.177695   1.000000
    5       -6.640567   1.000000
    6       -6.633304   1.000000
    7       -6.053147   1.000000
    8       -6.021930   1.000000
    9       -5.285721   1.000000
   10       -5.259295   1.000000
   11       -4.812224   1.000000
   12       -4.810239   1.000000
   13       -4.337508   1.000000
   14       -4.293136   1.000000
   15       -3.567712   1.000000
   16       -3.549414   1.000000
   17       -1.459078   1.000000
   18       -1.317025   1.000000
   19        0.444685   0.000000
   20        0.448208   0.000000
   21        1.524333   0.000000
   22        1.553002   0.000000
   23        1.950150   0.000000
   24        2.091808   0.000000
   25        3.361227   0.000000
   26        3.440140   0.000000
 
  0.3636202E+00  0.6686955E+00  0.0000000E+00  0.6172840E-02
    1      -13.290187   1.000000
    2      -13.259077   1.000000
    3      -13.178005   1.000000
    4      -13.174597   1.000000
    5       -6.649742   1.000000
    6       -6.642521   1.000000
    7       -6.008623   1.000000
    8       -5.976643   1.000000
    9       -5.315008   1.000000
   10       -5.284425   1.000000
   11       -4.845533   1.000000
   12       -4.842411   1.000000
   13       -4.327542   1.000000
   14       -4.281747   1.000000
   15       -3.581777   1.000000
   16       -3.561778   1.000000
   17       -1.447398   1.000000
   18       -1.303663   1.000000
   19        0.429583   0.000000
   20        0.431061   0.000000
   21        1.513375   0.000000
   22        1.542712   0.000000
   23        1.964992   0.000000
   24        2.106965   0.000000
   25        3.374197   0.000000
   26        3.453846   0.000000
 
  0.3636202E+00  0.6818101E+00  0.0000000E+00  0.6172840E-02
    1      -13.288649   1.000000
    2      -13.257451   1.000000
    3      -13.176972   1.000000
    4      -13.173556   1.000000
    5       -6.652812   1.000000
    6       -6.645605   1.000000
    7       -5.992166   1.000000
    8       -5.959925   1.000000
    9       -5.326807   1.000000
   10       -5.294803   1.000000
   11       -4.856929   1.000000
   12       -4.852067   1.000000
   13       -4.324099   1.000000
   14       -4.277787   1.000000
   15       -3.586620   1.000000
   16       -3.566016   1.000000
   17       -1.443419   1.000000
   18       -1.299099   1.000000
   19        0.424443   0.000000
   20        0.425214   0.000000
   21        1.509711   0.000000
   22        1.539261   0.000000
   23        1.969992   0.000000
   24        2.112058   0.000000
   25        3.378561   0.000000
   26        3.458458   0.000000
 
  0.3636202E+00  0.6949247E+00  0.0000000E+00  0.6172840E-02
    1      -13.290187   1.000000
    2      -13.259077   1.000000
    3      -13.178005   1.000000
    4      -13.174596   1.000000
    5       -6.649743   1.000000
    6       -6.642522   1.000000
    7       -6.008622   1.000000
    8       -5.976643   1.000000
    9       -5.315008   1.000000
   10       -5.284425   1.000000
   11       -4.845533   1.000000
   12       -4.842411   1.000000
   13       -4.327543   1.000000
   14       -4.281748   1.000000
   15       -3.581776   1.000000
   16       -3.561777   1.000000
   17       -1.447399   1.000000
   18       -1.303663   1.000000
   19        0.429583   0.000000
   20        0.431062   0.000000
   21        1.513375   0.000000
   22        1.542712   0.000000
   23        1.964992   0.000000
   24        2.106965   0.000000
   25        3.374193   0.000000
   26        3.453846   0.000000
 
  0.3636202E+00  0.7080393E+00  0.0000000E+00  0.6172840E-02
    1      -13.294787   1.000000
    2      -13.263943   1.000000
    3      -13.181081   1.000000
    4      -13.177694   1.000000
    5       -6.640568   1.000000
    6       -6.633305   1.000000
    7       -6.053146   1.000000
    8       -6.021929   1.000000
    9       -5.285722   1.000000
   10       -5.259295   1.000000
   11       -4.812225   1.000000
   12       -4.810240   1.000000
   13       -4.337508   1.000000
   14       -4.293137   1.000000
   15       -3.567710   1.000000
   16       -3.549412   1.000000
   17       -1.459078   1.000000
   18       -1.317026   1.000000
   19        0.444686   0.000000
   20        0.448209   0.000000
   21        1.524333   0.000000
   22        1.553002   0.000000
   23        1.950151   0.000000
   24        2.091809   0.000000
   25        3.361225   0.000000
   26        3.440138   0.000000
 
  0.3636202E+00  0.7211539E+00  0.0000000E+00  0.6172840E-02
    1      -13.302424   1.000000
    2      -13.272020   1.000000
    3      -13.186159   1.000000
    4      -13.182810   1.000000
    5       -6.625416   1.000000
    6       -6.618083   1.000000
    7       -6.115711   1.000000
    8       -6.085680   1.000000
    9       -5.251566   1.000000
   10       -5.231304   1.000000
   11       -4.759100   1.000000
   12       -4.749385   1.000000
   13       -4.353010   1.000000
   14       -4.310628   1.000000
   15       -3.545688   1.000000
   16       -3.529899   1.000000
   17       -1.477761   1.000000
   18       -1.338303   1.000000
   19        0.468790   0.000000
   20        0.475481   0.000000
   21        1.542405   0.000000
   22        1.569856   0.000000
   23        1.925946   0.000000
   24        2.066944   0.000000
   25        3.340006   0.000000
   26        3.417676   0.000000
 
  0.3636202E+00  0.7342685E+00  0.0000000E+00  0.6172840E-02
    1      -13.313042   1.000000
    2      -13.283248   1.000000
    3      -13.193180   1.000000
    4      -13.189883   1.000000
    5       -6.604484   1.000000
    6       -6.597054   1.000000
    7       -6.187352   1.000000
    8       -6.158826   1.000000
    9       -5.222532   1.000000
   10       -5.208855   1.000000
   11       -4.682372   1.000000
   12       -4.663828   1.000000
   13       -4.372649   1.000000
   14       -4.332332   1.000000
   15       -3.517387   1.000000
   16       -3.504581   1.000000
   17       -1.502404   1.000000
   18       -1.366193   1.000000
   19        0.500448   0.000000
   20        0.511137   0.000000
   21        1.567294   0.000000
   22        1.592734   0.000000
   23        1.893252   0.000000
   24        2.032960   0.000000
   25        3.311102   0.000000
   26        3.387028   0.000000
 
  0.3787636E+00  0.6369234E+00  0.0000000E+00  0.6172840E-02
    1      -13.320640   1.000000
    2      -13.291277   1.000000
    3      -13.198158   1.000000
    4      -13.194898   1.000000
    5       -6.589658   1.000000
    6       -6.582157   1.000000
    7       -6.230571   1.000000
    8       -6.203045   1.000000
    9       -5.209378   1.000000
   10       -5.199077   1.000000
   11       -4.628348   1.000000
   12       -4.604648   1.000000
   13       -4.385479   1.000000
   14       -4.346111   1.000000
   15       -3.498550   1.000000
   16       -3.487591   1.000000
   17       -1.519154   1.000000
   18       -1.385037   1.000000
   19        0.521716   0.000000
   20        0.534981   0.000000
   21        1.584637   0.000000
   22        1.608313   0.000000
   23        1.870716   0.000000
   24        2.009124   0.000000
   25        3.291110   0.000000
   26        3.365772   0.000000
 
  0.3787636E+00  0.6500380E+00  0.0000000E+00  0.6172840E-02
    1      -13.311432   1.000000
    2      -13.281466   1.000000
    3      -13.191795   1.000000
    4      -13.188480   1.000000
    5       -6.608761   1.000000
    6       -6.601337   1.000000
    7       -6.164042   1.000000
    8       -6.135542   1.000000
    9       -5.220507   1.000000
   10       -5.203708   1.000000
   11       -4.716377   1.000000
   12       -4.701274   1.000000
   13       -4.369674   1.000000
   14       -4.329059   1.000000
   15       -3.521385   1.000000
   16       -3.507962   1.000000
   17       -1.498582   1.000000
   18       -1.361622   1.000000
   19        0.492853   0.000000
   20        0.502361   0.000000
   21        1.557019   0.000000
   22        1.582904   0.000000
   23        1.899363   0.000000
   24        2.039133   0.000000
   25        3.320993   0.000000
   26        3.397319   0.000000
 
  0.3787636E+00  0.6631526E+00  0.0000000E+00  0.6172840E-02
    1      -13.304820   1.000000
    2      -13.274419   1.000000
    3      -13.187188   1.000000
    4      -13.183833   1.000000
    5       -6.622602   1.000000
    6       -6.615232   1.000000
    7       -6.107997   1.000000
    8       -6.078877   1.000000
    9       -5.235034   1.000000
   10       -5.211104   1.000000
   11       -4.781635   1.000000
   12       -4.774816   1.000000
   13       -4.357322   1.000000
   14       -4.315314   1.000000
   15       -3.538937   1.000000
   16       -3.523507   1.000000
   17       -1.483072   1.000000
   18       -1.343874   1.000000
   19        0.470998   0.000000
   20        0.477582   0.000000
   21        1.536976   0.000000
   22        1.564130   0.000000
   23        1.920630   0.000000
   24        2.061016   0.000000
   25        3.342933   0.000000
   26        3.420442   0.000000
 
  0.3787636E+00  0.6762672E+00  0.0000000E+00  0.6172840E-02
    1      -13.300839   1.000000
    2      -13.270176   1.000000
    3      -13.184400   1.000000
    4      -13.181021   1.000000
    5       -6.630984   1.000000
    6       -6.623645   1.000000
    7       -6.069640   1.000000
    8       -6.040226   1.000000
    9       -5.248314   1.000000
   10       -5.218614   1.000000
   11       -4.821088   1.000000
   12       -4.820593   1.000000
   13       -4.349444   1.000000
   14       -4.306421   1.000000
   15       -3.550032   1.000000
   16       -3.533278   1.000000
   17       -1.473418   1.000000
   18       -1.332782   1.000000
   19        0.457357   0.000000
   20        0.462077   0.000000
   21        1.524823   0.000000
   22        1.552650   0.000000
   23        1.933668   0.000000
   24        2.074317   0.000000
   25        3.356339   0.000000
   26        3.434554   0.000000
 
  0.3787636E+00  0.6893818E+00  0.0000000E+00  0.6172840E-02
    1      -13.299508   1.000000
    2      -13.268757   1.000000
    3      -13.183467   1.000000
    4      -13.180079   1.000000
    5       -6.633791   1.000000
    6       -6.626462   1.000000
    7       -6.055859   1.000000
    8       -6.026369   1.000000
    9       -5.253827   1.000000
   10       -5.221898   1.000000
   11       -4.836059   1.000000
   12       -4.834172   1.000000
   13       -4.346739   1.000000
   14       -4.303348   1.000000
   15       -3.553826   1.000000
   16       -3.536609   1.000000
   17       -1.470135   1.000000
   18       -1.329002   1.000000
   19        0.452721   0.000000
   20        0.456801   0.000000
   21        1.520757   0.000000
   22        1.548797   0.000000
   23        1.938058   0.000000
   24        2.078781   0.000000
   25        3.360855   0.000000
   26        3.439300   0.000000
 
  0.3787636E+00  0.7024964E+00  0.0000000E+00  0.6172840E-02
    1      -13.300839   1.000000
    2      -13.270176   1.000000
    3      -13.184400   1.000000
    4      -13.181020   1.000000
    5       -6.630985   1.000000
    6       -6.623646   1.000000
    7       -6.069640   1.000000
    8       -6.040225   1.000000
    9       -5.248315   1.000000
   10       -5.218615   1.000000
   11       -4.821088   1.000000
   12       -4.820592   1.000000
   13       -4.349444   1.000000
   14       -4.306421   1.000000
   15       -3.550031   1.000000
   16       -3.533278   1.000000
   17       -1.473418   1.000000
   18       -1.332782   1.000000
   19        0.457357   0.000000
   20        0.462078   0.000000
   21        1.524822   0.000000
   22        1.552650   0.000000
   23        1.933668   0.000000
   24        2.074318   0.000000
   25        3.356340   0.000000
   26        3.434554   0.000000
 
  0.3787636E+00  0.7156110E+00  0.0000000E+00  0.6172840E-02
    1      -13.304820   1.000000
    2      -13.274419   1.000000
    3      -13.187188   1.000000
    4      -13.183832   1.000000
    5       -6.622604   1.000000
    6       -6.615233   1.000000
    7       -6.107996   1.000000
    8       -6.078877   1.000000
    9       -5.235035   1.000000
   10       -5.211105   1.000000
   11       -4.781634   1.000000
   12       -4.774816   1.000000
   13       -4.357323   1.000000
   14       -4.315315   1.000000
   15       -3.538935   1.000000
   16       -3.523505   1.000000
   17       -1.483073   1.000000
   18       -1.343875   1.000000
   19        0.470999   0.000000
   20        0.477583   0.000000
   21        1.536976   0.000000
   22        1.564129   0.000000
   23        1.920630   0.000000
   24        2.061016   0.000000
   25        3.342933   0.000000
   26        3.420440   0.000000
 
  0.3787636E+00  0.7287256E+00  0.0000000E+00  0.6172840E-02
    1      -13.311433   1.000000
    2      -13.281467   1.000000
    3      -13.191795   1.000000
    4      -13.188479   1.000000
    5       -6.608762   1.000000
    6       -6.601338   1.000000
    7       -6.164041   1.000000
    8       -6.135542   1.000000
    9       -5.220509   1.000000
   10       -5.203709   1.000000
   11       -4.716376   1.000000
   12       -4.701274   1.000000
   13       -4.369675   1.000000
   14       -4.329060   1.000000
   15       -3.521383   1.000000
   16       -3.507959   1.000000
   17       -1.498583   1.000000
   18       -1.361623   1.000000
   19        0.492854   0.000000
   20        0.502363   0.000000
   21        1.557018   0.000000
   22        1.582904   0.000000
   23        1.899364   0.000000
   24        2.039134   0.000000
   25        3.321047   0.000000
   26        3.397373   0.000000
 
  0.3787636E+00  0.7418402E+00  0.0000000E+00  0.6172840E-02
    1      -13.320641   1.000000
    2      -13.291277   1.000000
    3      -13.198157   1.000000
    4      -13.194897   1.000000
    5       -6.589660   1.000000
    6       -6.582160   1.000000
    7       -6.230570   1.000000
    8       -6.203044   1.000000
    9       -5.209380   1.000000
   10       -5.199079   1.000000
   11       -4.628348   1.000000
   12       -4.604648   1.000000
   13       -4.385481   1.000000
   14       -4.346113   1.000000
   15       -3.498547   1.000000
   16       -3.487588   1.000000
   17       -1.519155   1.000000
   18       -1.385038   1.000000
   19        0.521717   0.000000
   20        0.534983   0.000000
   21        1.584636   0.000000
   22        1.608312   0.000000
   23        1.870716   0.000000
   24        2.009125   0.000000
   25        3.291108   0.000000
   26        3.365771   0.000000
 
  0.3939071E+00  0.6444951E+00  0.0000000E+00  0.6172840E-02
    1      -13.333096   1.000000
    2      -13.304333   1.000000
    3      -13.205847   1.000000
    4      -13.202637   1.000000
    5       -6.566981   1.000000
    6       -6.559353   1.000000
    7       -6.278201   1.000000
    8       -6.252369   1.000000
    9       -5.188767   1.000000
   10       -5.181006   1.000000
   11       -4.567411   1.000000
   12       -4.537948   1.000000
   13       -4.404575   1.000000
   14       -4.365862   1.000000
   15       -3.469513   1.000000
   16       -3.460987   1.000000
   17       -1.545090   1.000000
   18       -1.413762   1.000000
   19        0.550947   0.000000
   20        0.567298   0.000000
   21        1.604201   0.000000
   22        1.624490   0.000000
   23        1.836922   0.000000
   24        1.972299   0.000000
   25        3.266175   0.000000
   26        3.338908   0.000000
 
  0.3939071E+00  0.6576097E+00  0.0000000E+00  0.6172840E-02
    1      -13.325307   1.000000
    2      -13.295950   1.000000
    3      -13.200162   1.000000
    4      -13.196893   1.000000
    5       -6.584137   1.000000
    6       -6.576567   1.000000
    7       -6.217208   1.000000
    8       -6.190864   1.000000
    9       -5.183160   1.000000
   10       -5.169448   1.000000
   11       -4.664553   1.000000
   12       -4.643541   1.000000
   13       -4.392823   1.000000
   14       -4.354146   1.000000
   15       -3.486713   1.000000
   16       -3.476231   1.000000
   17       -1.528758   1.000000
   18       -1.395025   1.000000
   19        0.525259   0.000000
   20        0.538143   0.000000
   21        1.574042   0.000000
   22        1.597179   0.000000
   23        1.860931   0.000000
   24        1.998204   0.000000
   25        3.296757   0.000000
   26        3.371077   0.000000
 
  0.3939071E+00  0.6707243E+00  0.0000000E+00  0.6172840E-02
    1      -13.319723   1.000000
    2      -13.289938   1.000000
    3      -13.196050   1.000000
    4      -13.192737   1.000000
    5       -6.596589   1.000000
    6       -6.589055   1.000000
    7       -6.167357   1.000000
    8       -6.140818   1.000000
    9       -5.178795   1.000000
   10       -5.157917   1.000000
   11       -4.741347   1.000000
   12       -4.728512   1.000000
   13       -4.383707   1.000000
   14       -4.344313   1.000000
   15       -3.499773   1.000000
   16       -3.487747   1.000000
   17       -1.516533   1.000000
   18       -1.380936   1.000000
   19        0.505902   0.000000
   20        0.516134   0.000000
   21        1.552131   0.000000
   22        1.576772   0.000000
   23        1.878990   0.000000
   24        2.017041   0.000000
   25        3.319209   0.000000
   26        3.394657   0.000000
 
  0.3939071E+00  0.6838389E+00  0.0000000E+00  0.6172840E-02
    1      -13.316366   1.000000
    2      -13.286323   1.000000
    3      -13.193561   1.000000
    4      -13.190223   1.000000
    5       -6.604139   1.000000
    6       -6.596627   1.000000
    7       -6.134222   1.000000
    8       -6.107684   1.000000
    9       -5.175943   1.000000
   10       -5.148365   1.000000
   11       -4.791061   1.000000
   12       -4.785294   1.000000
   13       -4.377938   1.000000
   14       -4.337930   1.000000
   15       -3.507948   1.000000
   16       -3.494927   1.000000
   17       -1.508959   1.000000
   18       -1.372177   1.000000
   19        0.493872   0.000000
   20        0.502435   0.000000
   21        1.538848   0.000000
   22        1.564251   0.000000
   23        1.890111   0.000000
   24        2.028469   0.000000
   25        3.332920   0.000000
   26        3.409047   0.000000
 
  0.3939071E+00  0.6969535E+00  0.0000000E+00  0.6172840E-02
    1      -13.315244   1.000000
    2      -13.285114   1.000000
    3      -13.192730   1.000000
    4      -13.189383   1.000000
    5       -6.606671   1.000000
    6       -6.599165   1.000000
    7       -6.122539   1.000000
    8       -6.096030   1.000000
    9       -5.174932   1.000000
   10       -5.144433   1.000000
   11       -4.808353   1.000000
   12       -4.805587   1.000000
   13       -4.375967   1.000000
   14       -4.335728   1.000000
   15       -3.510728   1.000000
   16       -3.497364   1.000000
   17       -1.506393   1.000000
   18       -1.369204   1.000000
   19        0.489788   0.000000
   20        0.497782   0.000000
   21        1.534397   0.000000
   22        1.560036   0.000000
   23        1.893855   0.000000
   24        2.032294   0.000000
   25        3.337536   0.000000
   26        3.413893   0.000000
 
  0.3939071E+00  0.7100681E+00  0.0000000E+00  0.6172840E-02
    1      -13.316367   1.000000
    2      -13.286323   1.000000
    3      -13.193561   1.000000
    4      -13.190223   1.000000
    5       -6.604140   1.000000
    6       -6.596627   1.000000
    7       -6.134222   1.000000
    8       -6.107684   1.000000
    9       -5.175944   1.000000
   10       -5.148366   1.000000
   11       -4.791060   1.000000
   12       -4.785294   1.000000
   13       -4.377939   1.000000
   14       -4.337931   1.000000
   15       -3.507947   1.000000
   16       -3.494926   1.000000
   17       -1.508960   1.000000
   18       -1.372177   1.000000
   19        0.493872   0.000000
   20        0.502436   0.000000
   21        1.538848   0.000000
   22        1.564251   0.000000
   23        1.890111   0.000000
   24        2.028469   0.000000
   25        3.332920   0.000000
   26        3.409064   0.000000
 
  0.3939071E+00  0.7231827E+00  0.0000000E+00  0.6172840E-02
    1      -13.319724   1.000000
    2      -13.289938   1.000000
    3      -13.196049   1.000000
    4      -13.192737   1.000000
    5       -6.596590   1.000000
    6       -6.589057   1.000000
    7       -6.167356   1.000000
    8       -6.140817   1.000000
    9       -5.178797   1.000000
   10       -5.157919   1.000000
   11       -4.741346   1.000000
   12       -4.728512   1.000000
   13       -4.383708   1.000000
   14       -4.344314   1.000000
   15       -3.499771   1.000000
   16       -3.487745   1.000000
   17       -1.516534   1.000000
   18       -1.380936   1.000000
   19        0.505902   0.000000
   20        0.516134   0.000000
   21        1.552130   0.000000
   22        1.576772   0.000000
   23        1.878991   0.000000
   24        2.017041   0.000000
   25        3.319210   0.000000
   26        3.394659   0.000000
 
  0.3939071E+00  0.7362974E+00  0.0000000E+00  0.6172840E-02
    1      -13.325308   1.000000
    2      -13.295951   1.000000
    3      -13.200162   1.000000
    4      -13.196892   1.000000
    5       -6.584139   1.000000
    6       -6.576569   1.000000
    7       -6.217207   1.000000
    8       -6.190863   1.000000
    9       -5.183162   1.000000
   10       -5.169450   1.000000
   11       -4.664552   1.000000
   12       -4.643540   1.000000
   13       -4.392824   1.000000
   14       -4.354148   1.000000
   15       -3.486710   1.000000
   16       -3.476229   1.000000
   17       -1.528759   1.000000
   18       -1.395026   1.000000
   19        0.525260   0.000000
   20        0.538144   0.000000
   21        1.574041   0.000000
   22        1.597178   0.000000
   23        1.860931   0.000000
   24        1.998204   0.000000
   25        3.296758   0.000000
   26        3.371076   0.000000
 
  0.3939071E+00  0.7494120E+00  0.0000000E+00  0.6172840E-02
    1      -13.333097   1.000000
    2      -13.304334   1.000000
    3      -13.205846   1.000000
    4      -13.202636   1.000000
    5       -6.566983   1.000000
    6       -6.559355   1.000000
    7       -6.278200   1.000000
    8       -6.252368   1.000000
    9       -5.188769   1.000000
   10       -5.181008   1.000000
   11       -4.567410   1.000000
   12       -4.537947   1.000000
   13       -4.404577   1.000000
   14       -4.365864   1.000000
   15       -3.469510   1.000000
   16       -3.460984   1.000000
   17       -1.545091   1.000000
   18       -1.413763   1.000000
   19        0.550949   0.000000
   20        0.567299   0.000000
   21        1.604200   0.000000
   22        1.624489   0.000000
   23        1.836922   0.000000
   24        1.972299   0.000000
   25        3.266167   0.000000
   26        3.338911   0.000000
 
 -0.3939071E+00 -0.7494120E+00  0.0000000E+00  0.6172840E-02
    1      -13.333097   1.000000
    2      -13.304334   1.000000
    3      -13.205846   1.000000
    4      -13.202636   1.000000
    5       -6.566983   1.000000
    6       -6.559355   1.000000
    7       -6.278200   1.000000
    8       -6.252368   1.000000
    9       -5.188769   1.000000
   10       -5.181008   1.000000
   11       -4.567410   1.000000
   12       -4.537947   1.000000
   13       -4.404577   1.000000
   14       -4.365864   1.000000
   15       -3.469510   1.000000
   16       -3.460984   1.000000
   17       -1.545091   1.000000
   18       -1.413763   1.000000
   19        0.550949   0.000000
   20        0.567299   0.000000
   21        1.604200   0.000000
   22        1.624489   0.000000
   23        1.836922   0.000000
   24        1.972300   0.000000
   25        3.266166   0.000000
   26        3.338904   0.000000
 
 -0.3939071E+00 -0.7362974E+00  0.0000000E+00  0.6172840E-02
    1      -13.325308   1.000000
    2      -13.295951   1.000000
    3      -13.200162   1.000000
    4      -13.196892   1.000000
    5       -6.584139   1.000000
    6       -6.576569   1.000000
    7       -6.217207   1.000000
    8       -6.190863   1.000000
    9       -5.183162   1.000000
   10       -5.169450   1.000000
   11       -4.664552   1.000000
   12       -4.643540   1.000000
   13       -4.392824   1.000000
   14       -4.354148   1.000000
   15       -3.486710   1.000000
   16       -3.476229   1.000000
   17       -1.528759   1.000000
   18       -1.395026   1.000000
   19        0.525260   0.000000
   20        0.538144   0.000000
   21        1.574041   0.000000
   22        1.597178   0.000000
   23        1.860931   0.000000
   24        1.998204   0.000000
   25        3.296758   0.000000
   26        3.371077   0.000000
 
 -0.3939071E+00 -0.7231827E+00  0.0000000E+00  0.6172840E-02
    1      -13.319724   1.000000
    2      -13.289938   1.000000
    3      -13.196049   1.000000
    4      -13.192737   1.000000
    5       -6.596590   1.000000
    6       -6.589057   1.000000
    7       -6.167356   1.000000
    8       -6.140817   1.000000
    9       -5.178797   1.000000
   10       -5.157919   1.000000
   11       -4.741346   1.000000
   12       -4.728512   1.000000
   13       -4.383708   1.000000
   14       -4.344314   1.000000
   15       -3.499771   1.000000
   16       -3.487745   1.000000
   17       -1.516534   1.000000
   18       -1.380936   1.000000
   19        0.505902   0.000000
   20        0.516134   0.000000
   21        1.552130   0.000000
   22        1.576772   0.000000
   23        1.878991   0.000000
   24        2.017041   0.000000
   25        3.319209   0.000000
   26        3.394656   0.000000
 
 -0.3939071E+00 -0.7100681E+00  0.0000000E+00  0.6172840E-02
    1      -13.316367   1.000000
    2      -13.286323   1.000000
    3      -13.193561   1.000000
    4      -13.190223   1.000000
    5       -6.604140   1.000000
    6       -6.596627   1.000000
    7       -6.134222   1.000000
    8       -6.107684   1.000000
    9       -5.175944   1.000000
   10       -5.148366   1.000000
   11       -4.791060   1.000000
   12       -4.785294   1.000000
   13       -4.377939   1.000000
   14       -4.337931   1.000000
   15       -3.507947   1.000000
   16       -3.494926   1.000000
   17       -1.508960   1.000000
   18       -1.372177   1.000000
   19        0.493872   0.000000
   20        0.502436   0.000000
   21        1.538848   0.000000
   22        1.564251   0.000000
   23        1.890111   0.000000
   24        2.028469   0.000000
   25        3.332920   0.000000
   26        3.409045   0.000000
 
 -0.3939071E+00 -0.6969535E+00  0.0000000E+00  0.6172840E-02
    1      -13.315244   1.000000
    2      -13.285114   1.000000
    3      -13.192730   1.000000
    4      -13.189383   1.000000
    5       -6.606671   1.000000
    6       -6.599165   1.000000
    7       -6.122539   1.000000
    8       -6.096030   1.000000
    9       -5.174932   1.000000
   10       -5.144433   1.000000
   11       -4.808353   1.000000
   12       -4.805587   1.000000
   13       -4.375967   1.000000
   14       -4.335728   1.000000
   15       -3.510728   1.000000
   16       -3.497364   1.000000
   17       -1.506393   1.000000
   18       -1.369204   1.000000
   19        0.489788   0.000000
   20        0.497782   0.000000
   21        1.534397   0.000000
   22        1.560036   0.000000
   23        1.893855   0.000000
   24        2.032294   0.000000
   25        3.337537   0.000000
   26        3.413887   0.000000
 
 -0.3939071E+00 -0.6838389E+00  0.0000000E+00  0.6172840E-02
    1      -13.316366   1.000000
    2      -13.286323   1.000000
    3      -13.193561   1.000000
    4      -13.190223   1.000000
    5       -6.604139   1.000000
    6       -6.596627   1.000000
    7       -6.134222   1.000000
    8       -6.107684   1.000000
    9       -5.175943   1.000000
   10       -5.148365   1.000000
   11       -4.791061   1.000000
   12       -4.785294   1.000000
   13       -4.377938   1.000000
   14       -4.337930   1.000000
   15       -3.507948   1.000000
   16       -3.494927   1.000000
   17       -1.508959   1.000000
   18       -1.372177   1.000000
   19        0.493872   0.000000
   20        0.502435   0.000000
   21        1.538848   0.000000
   22        1.564251   0.000000
   23        1.890111   0.000000
   24        2.028469   0.000000
   25        3.332924   0.000000
   26        3.409046   0.000000
 
 -0.3939071E+00 -0.6707243E+00  0.0000000E+00  0.6172840E-02
    1      -13.319723   1.000000
    2      -13.289938   1.000000
    3      -13.196050   1.000000
    4      -13.192737   1.000000
    5       -6.596589   1.000000
    6       -6.589055   1.000000
    7       -6.167357   1.000000
    8       -6.140818   1.000000
    9       -5.178795   1.000000
   10       -5.157917   1.000000
   11       -4.741347   1.000000
   12       -4.728512   1.000000
   13       -4.383707   1.000000
   14       -4.344313   1.000000
   15       -3.499773   1.000000
   16       -3.487747   1.000000
   17       -1.516533   1.000000
   18       -1.380936   1.000000
   19        0.505902   0.000000
   20        0.516134   0.000000
   21        1.552131   0.000000
   22        1.576772   0.000000
   23        1.878990   0.000000
   24        2.017041   0.000000
   25        3.319209   0.000000
   26        3.394657   0.000000
 
 -0.3939071E+00 -0.6576097E+00  0.0000000E+00  0.6172840E-02
    1      -13.325307   1.000000
    2      -13.295950   1.000000
    3      -13.200162   1.000000
    4      -13.196893   1.000000
    5       -6.584137   1.000000
    6       -6.576567   1.000000
    7       -6.217208   1.000000
    8       -6.190864   1.000000
    9       -5.183160   1.000000
   10       -5.169448   1.000000
   11       -4.664553   1.000000
   12       -4.643541   1.000000
   13       -4.392823   1.000000
   14       -4.354146   1.000000
   15       -3.486713   1.000000
   16       -3.476231   1.000000
   17       -1.528758   1.000000
   18       -1.395025   1.000000
   19        0.525259   0.000000
   20        0.538143   0.000000
   21        1.574042   0.000000
   22        1.597179   0.000000
   23        1.860931   0.000000
   24        1.998204   0.000000
   25        3.296757   0.000000
   26        3.371078   0.000000
 
 -0.3939071E+00 -0.6444951E+00  0.0000000E+00  0.6172840E-02
    1      -13.333096   1.000000
    2      -13.304333   1.000000
    3      -13.205847   1.000000
    4      -13.202637   1.000000
    5       -6.566981   1.000000
    6       -6.559353   1.000000
    7       -6.278201   1.000000
    8       -6.252369   1.000000
    9       -5.188767   1.000000
   10       -5.181006   1.000000
   11       -4.567411   1.000000
   12       -4.537948   1.000000
   13       -4.404575   1.000000
   14       -4.365862   1.000000
   15       -3.469513   1.000000
   16       -3.460987   1.000000
   17       -1.545090   1.000000
   18       -1.413762   1.000000
   19        0.550947   0.000000
   20        0.567298   0.000000
   21        1.604201   0.000000
   22        1.624490   0.000000
   23        1.836921   0.000000
   24        1.972299   0.000000
   25        3.266166   0.000000
   26        3.338905   0.000000
 
 -0.3787636E+00 -0.7418402E+00  0.0000000E+00  0.6172840E-02
    1      -13.320641   1.000000
    2      -13.291277   1.000000
    3      -13.198157   1.000000
    4      -13.194897   1.000000
    5       -6.589660   1.000000
    6       -6.582160   1.000000
    7       -6.230570   1.000000
    8       -6.203044   1.000000
    9       -5.209380   1.000000
   10       -5.199079   1.000000
   11       -4.628348   1.000000
   12       -4.604648   1.000000
   13       -4.385481   1.000000
   14       -4.346113   1.000000
   15       -3.498547   1.000000
   16       -3.487588   1.000000
   17       -1.519155   1.000000
   18       -1.385038   1.000000
   19        0.521717   0.000000
   20        0.534983   0.000000
   21        1.584636   0.000000
   22        1.608312   0.000000
   23        1.870716   0.000000
   24        2.009125   0.000000
   25        3.291107   0.000000
   26        3.365773   0.000000
 
 -0.3787636E+00 -0.7287256E+00  0.0000000E+00  0.6172840E-02
    1      -13.311433   1.000000
    2      -13.281467   1.000000
    3      -13.191795   1.000000
    4      -13.188479   1.000000
    5       -6.608762   1.000000
    6       -6.601338   1.000000
    7       -6.164041   1.000000
    8       -6.135542   1.000000
    9       -5.220509   1.000000
   10       -5.203709   1.000000
   11       -4.716376   1.000000
   12       -4.701274   1.000000
   13       -4.369675   1.000000
   14       -4.329060   1.000000
   15       -3.521383   1.000000
   16       -3.507959   1.000000
   17       -1.498583   1.000000
   18       -1.361623   1.000000
   19        0.492854   0.000000
   20        0.502363   0.000000
   21        1.557018   0.000000
   22        1.582904   0.000000
   23        1.899364   0.000000
   24        2.039134   0.000000
   25        3.320992   0.000000
   26        3.397318   0.000000
 
 -0.3787636E+00 -0.7156110E+00  0.0000000E+00  0.6172840E-02
    1      -13.304820   1.000000
    2      -13.274419   1.000000
    3      -13.187188   1.000000
    4      -13.183832   1.000000
    5       -6.622604   1.000000
    6       -6.615233   1.000000
    7       -6.107996   1.000000
    8       -6.078877   1.000000
    9       -5.235035   1.000000
   10       -5.211105   1.000000
   11       -4.781634   1.000000
   12       -4.774816   1.000000
   13       -4.357323   1.000000
   14       -4.315315   1.000000
   15       -3.538935   1.000000
   16       -3.523505   1.000000
   17       -1.483073   1.000000
   18       -1.343875   1.000000
   19        0.470999   0.000000
   20        0.477583   0.000000
   21        1.536976   0.000000
   22        1.564129   0.000000
   23        1.920630   0.000000
   24        2.061016   0.000000
   25        3.342935   0.000000
   26        3.420440   0.000000
 
 -0.3787636E+00 -0.7024964E+00  0.0000000E+00  0.6172840E-02
    1      -13.300839   1.000000
    2      -13.270176   1.000000
    3      -13.184400   1.000000
    4      -13.181020   1.000000
    5       -6.630985   1.000000
    6       -6.623646   1.000000
    7       -6.069640   1.000000
    8       -6.040225   1.000000
    9       -5.248315   1.000000
   10       -5.218615   1.000000
   11       -4.821088   1.000000
   12       -4.820592   1.000000
   13       -4.349444   1.000000
   14       -4.306421   1.000000
   15       -3.550031   1.000000
   16       -3.533278   1.000000
   17       -1.473418   1.000000
   18       -1.332782   1.000000
   19        0.457357   0.000000
   20        0.462078   0.000000
   21        1.524822   0.000000
   22        1.552650   0.000000
   23        1.933668   0.000000
   24        2.074318   0.000000
   25        3.356350   0.000000
   26        3.434554   0.000000
 
 -0.3787636E+00 -0.6893818E+00  0.0000000E+00  0.6172840E-02
    1      -13.299508   1.000000
    2      -13.268757   1.000000
    3      -13.183467   1.000000
    4      -13.180079   1.000000
    5       -6.633791   1.000000
    6       -6.626462   1.000000
    7       -6.055859   1.000000
    8       -6.026369   1.000000
    9       -5.253827   1.000000
   10       -5.221898   1.000000
   11       -4.836059   1.000000
   12       -4.834172   1.000000
   13       -4.346739   1.000000
   14       -4.303348   1.000000
   15       -3.553826   1.000000
   16       -3.536609   1.000000
   17       -1.470135   1.000000
   18       -1.329002   1.000000
   19        0.452721   0.000000
   20        0.456801   0.000000
   21        1.520757   0.000000
   22        1.548797   0.000000
   23        1.938058   0.000000
   24        2.078781   0.000000
   25        3.360849   0.000000
   26        3.439301   0.000000
 
 -0.3787636E+00 -0.6762672E+00  0.0000000E+00  0.6172840E-02
    1      -13.300839   1.000000
    2      -13.270176   1.000000
    3      -13.184400   1.000000
    4      -13.181021   1.000000
    5       -6.630984   1.000000
    6       -6.623645   1.000000
    7       -6.069640   1.000000
    8       -6.040226   1.000000
    9       -5.248314   1.000000
   10       -5.218614   1.000000
   11       -4.821088   1.000000
   12       -4.820593   1.000000
   13       -4.349444   1.000000
   14       -4.306421   1.000000
   15       -3.550032   1.000000
   16       -3.533278   1.000000
   17       -1.473418   1.000000
   18       -1.332782   1.000000
   19        0.457357   0.000000
   20        0.462077   0.000000
   21        1.524823   0.000000
   22        1.552650   0.000000
   23        1.933668   0.000000
   24        2.074317   0.000000
   25        3.356341   0.000000
   26        3.434561   0.000000
 
 -0.3787636E+00 -0.6631526E+00  0.0000000E+00  0.6172840E-02
    1      -13.304820   1.000000
    2      -13.274419   1.000000
    3      -13.187188   1.000000
    4      -13.183833   1.000000
    5       -6.622602   1.000000
    6       -6.615232   1.000000
    7       -6.107997   1.000000
    8       -6.078877   1.000000
    9       -5.235034   1.000000
   10       -5.211104   1.000000
   11       -4.781635   1.000000
   12       -4.774816   1.000000
   13       -4.357322   1.000000
   14       -4.315314   1.000000
   15       -3.538937   1.000000
   16       -3.523507   1.000000
   17       -1.483072   1.000000
   18       -1.343874   1.000000
   19        0.470998   0.000000
   20        0.477582   0.000000
   21        1.536976   0.000000
   22        1.564130   0.000000
   23        1.920630   0.000000
   24        2.061016   0.000000
   25        3.342935   0.000000
   26        3.420442   0.000000
 
 -0.3787636E+00 -0.6500380E+00  0.0000000E+00  0.6172840E-02
    1      -13.311432   1.000000
    2      -13.281466   1.000000
    3      -13.191795   1.000000
    4      -13.188480   1.000000
    5       -6.608761   1.000000
    6       -6.601337   1.000000
    7       -6.164042   1.000000
    8       -6.135542   1.000000
    9       -5.220507   1.000000
   10       -5.203708   1.000000
   11       -4.716377   1.000000
   12       -4.701274   1.000000
   13       -4.369674   1.000000
   14       -4.329059   1.000000
   15       -3.521385   1.000000
   16       -3.507962   1.000000
   17       -1.498582   1.000000
   18       -1.361622   1.000000
   19        0.492853   0.000000
   20        0.502361   0.000000
   21        1.557019   0.000000
   22        1.582904   0.000000
   23        1.899363   0.000000
   24        2.039133   0.000000
   25        3.320997   0.000000
   26        3.397327   0.000000
 
 -0.3787636E+00 -0.6369234E+00  0.0000000E+00  0.6172840E-02
    1      -13.320640   1.000000
    2      -13.291277   1.000000
    3      -13.198158   1.000000
    4      -13.194898   1.000000
    5       -6.589658   1.000000
    6       -6.582157   1.000000
    7       -6.230571   1.000000
    8       -6.203045   1.000000
    9       -5.209378   1.000000
   10       -5.199077   1.000000
   11       -4.628348   1.000000
   12       -4.604648   1.000000
   13       -4.385479   1.000000
   14       -4.346111   1.000000
   15       -3.498550   1.000000
   16       -3.487591   1.000000
   17       -1.519154   1.000000
   18       -1.385037   1.000000
   19        0.521716   0.000000
   20        0.534981   0.000000
   21        1.584637   0.000000
   22        1.608313   0.000000
   23        1.870716   0.000000
   24        2.009124   0.000000
   25        3.291109   0.000000
   26        3.365771   0.000000
 
 -0.3636202E+00 -0.7342685E+00  0.0000000E+00  0.6172840E-02
    1      -13.313042   1.000000
    2      -13.283248   1.000000
    3      -13.193180   1.000000
    4      -13.189883   1.000000
    5       -6.604484   1.000000
    6       -6.597054   1.000000
    7       -6.187352   1.000000
    8       -6.158826   1.000000
    9       -5.222532   1.000000
   10       -5.208855   1.000000
   11       -4.682372   1.000000
   12       -4.663828   1.000000
   13       -4.372649   1.000000
   14       -4.332332   1.000000
   15       -3.517387   1.000000
   16       -3.504581   1.000000
   17       -1.502404   1.000000
   18       -1.366193   1.000000
   19        0.500448   0.000000
   20        0.511137   0.000000
   21        1.567294   0.000000
   22        1.592734   0.000000
   23        1.893252   0.000000
   24        2.032960   0.000000
   25        3.311103   0.000000
   26        3.387031   0.000000
 
 -0.3636202E+00 -0.7211539E+00  0.0000000E+00  0.6172840E-02
    1      -13.302424   1.000000
    2      -13.272020   1.000000
    3      -13.186159   1.000000
    4      -13.182810   1.000000
    5       -6.625416   1.000000
    6       -6.618083   1.000000
    7       -6.115711   1.000000
    8       -6.085680   1.000000
    9       -5.251566   1.000000
   10       -5.231304   1.000000
   11       -4.759100   1.000000
   12       -4.749385   1.000000
   13       -4.353010   1.000000
   14       -4.310628   1.000000
   15       -3.545688   1.000000
   16       -3.529899   1.000000
   17       -1.477761   1.000000
   18       -1.338303   1.000000
   19        0.468790   0.000000
   20        0.475481   0.000000
   21        1.542405   0.000000
   22        1.569856   0.000000
   23        1.925946   0.000000
   24        2.066944   0.000000
   25        3.340004   0.000000
   26        3.417675   0.000000
 
 -0.3636202E+00 -0.7080393E+00  0.0000000E+00  0.6172840E-02
    1      -13.294787   1.000000
    2      -13.263943   1.000000
    3      -13.181081   1.000000
    4      -13.177694   1.000000
    5       -6.640568   1.000000
    6       -6.633305   1.000000
    7       -6.053146   1.000000
    8       -6.021929   1.000000
    9       -5.285722   1.000000
   10       -5.259295   1.000000
   11       -4.812225   1.000000
   12       -4.810240   1.000000
   13       -4.337508   1.000000
   14       -4.293137   1.000000
   15       -3.567710   1.000000
   16       -3.549412   1.000000
   17       -1.459078   1.000000
   18       -1.317026   1.000000
   19        0.444686   0.000000
   20        0.448209   0.000000
   21        1.524333   0.000000
   22        1.553002   0.000000
   23        1.950151   0.000000
   24        2.091809   0.000000
   25        3.361225   0.000000
   26        3.440138   0.000000
 
 -0.3636202E+00 -0.6949247E+00  0.0000000E+00  0.6172840E-02
    1      -13.290187   1.000000
    2      -13.259077   1.000000
    3      -13.178005   1.000000
    4      -13.174596   1.000000
    5       -6.649743   1.000000
    6       -6.642522   1.000000
    7       -6.008622   1.000000
    8       -5.976643   1.000000
    9       -5.315008   1.000000
   10       -5.284425   1.000000
   11       -4.845533   1.000000
   12       -4.842411   1.000000
   13       -4.327543   1.000000
   14       -4.281748   1.000000
   15       -3.581776   1.000000
   16       -3.561777   1.000000
   17       -1.447399   1.000000
   18       -1.303663   1.000000
   19        0.429583   0.000000
   20        0.431062   0.000000
   21        1.513375   0.000000
   22        1.542712   0.000000
   23        1.964992   0.000000
   24        2.106965   0.000000
   25        3.374193   0.000000
   26        3.453845   0.000000
 
 -0.3636202E+00 -0.6818101E+00  0.0000000E+00  0.6172840E-02
    1      -13.288649   1.000000
    2      -13.257451   1.000000
    3      -13.176972   1.000000
    4      -13.173556   1.000000
    5       -6.652812   1.000000
    6       -6.645605   1.000000
    7       -5.992166   1.000000
    8       -5.959925   1.000000
    9       -5.326807   1.000000
   10       -5.294803   1.000000
   11       -4.856929   1.000000
   12       -4.852067   1.000000
   13       -4.324099   1.000000
   14       -4.277787   1.000000
   15       -3.586620   1.000000
   16       -3.566016   1.000000
   17       -1.443419   1.000000
   18       -1.299099   1.000000
   19        0.424443   0.000000
   20        0.425214   0.000000
   21        1.509711   0.000000
   22        1.539261   0.000000
   23        1.969992   0.000000
   24        2.112058   0.000000
   25        3.378560   0.000000
   26        3.458458   0.000000
 
 -0.3636202E+00 -0.6686955E+00  0.0000000E+00  0.6172840E-02
    1      -13.290187   1.000000
    2      -13.259077   1.000000
    3      -13.178005   1.000000
    4      -13.174597   1.000000
    5       -6.649742   1.000000
    6       -6.642521   1.000000
    7       -6.008623   1.000000
    8       -5.976643   1.000000
    9       -5.315008   1.000000
   10       -5.284425   1.000000
   11       -4.845533   1.000000
   12       -4.842411   1.000000
   13       -4.327542   1.000000
   14       -4.281747   1.000000
   15       -3.581777   1.000000
   16       -3.561778   1.000000
   17       -1.447398   1.000000
   18       -1.303663   1.000000
   19        0.429583   0.000000
   20        0.431061   0.000000
   21        1.513375   0.000000
   22        1.542712   0.000000
   23        1.964992   0.000000
   24        2.106965   0.000000
   25        3.374257   0.000000
   26        3.453864   0.000000
 
 -0.3636202E+00 -0.6555809E+00  0.0000000E+00  0.6172840E-02
    1      -13.294787   1.000000
    2      -13.263942   1.000000
    3      -13.181081   1.000000
    4      -13.177695   1.000000
    5       -6.640567   1.000000
    6       -6.633304   1.000000
    7       -6.053147   1.000000
    8       -6.021930   1.000000
    9       -5.285721   1.000000
   10       -5.259295   1.000000
   11       -4.812224   1.000000
   12       -4.810239   1.000000
   13       -4.337508   1.000000
   14       -4.293136   1.000000
   15       -3.567712   1.000000
   16       -3.549414   1.000000
   17       -1.459078   1.000000
   18       -1.317025   1.000000
   19        0.444685   0.000000
   20        0.448208   0.000000
   21        1.524333   0.000000
   22        1.553002   0.000000
   23        1.950150   0.000000
   24        2.091808   0.000000
   25        3.361227   0.000000
   26        3.440138   0.000000
 
 -0.3636202E+00 -0.6424663E+00  0.0000000E+00  0.6172840E-02
    1      -13.302424   1.000000
    2      -13.272019   1.000000
    3      -13.186160   1.000000
    4      -13.182811   1.000000
    5       -6.625414   1.000000
    6       -6.618082   1.000000
    7       -6.115711   1.000000
    8       -6.085680   1.000000
    9       -5.251565   1.000000
   10       -5.231304   1.000000
   11       -4.759100   1.000000
   12       -4.749385   1.000000
   13       -4.353009   1.000000
   14       -4.310627   1.000000
   15       -3.545691   1.000000
   16       -3.529901   1.000000
   17       -1.477760   1.000000
   18       -1.338302   1.000000
   19        0.468788   0.000000
   20        0.475480   0.000000
   21        1.542405   0.000000
   22        1.569856   0.000000
   23        1.925946   0.000000
   24        2.066943   0.000000
   25        3.340006   0.000000
   26        3.417676   0.000000
 
 -0.3636202E+00 -0.6293517E+00  0.0000000E+00  0.6172840E-02
    1      -13.313042   1.000000
    2      -13.283247   1.000000
    3      -13.193181   1.000000
    4      -13.189884   1.000000
    5       -6.604482   1.000000
    6       -6.597052   1.000000
    7       -6.187353   1.000000
    8       -6.158826   1.000000
    9       -5.222530   1.000000
   10       -5.208854   1.000000
   11       -4.682372   1.000000
   12       -4.663828   1.000000
   13       -4.372647   1.000000
   14       -4.332330   1.000000
   15       -3.517390   1.000000
   16       -3.504584   1.000000
   17       -1.502402   1.000000
   18       -1.366192   1.000000
   19        0.500446   0.000000
   20        0.511135   0.000000
   21        1.567295   0.000000
   22        1.592735   0.000000
   23        1.893252   0.000000
   24        2.032959   0.000000
   25        3.311103   0.000000
   26        3.387039   0.000000
 
 -0.3484768E+00 -0.7266968E+00  0.0000000E+00  0.6172840E-02
    1      -13.309983   1.000000
    2      -13.279930   1.000000
    3      -13.190822   1.000000
    4      -13.187499   1.000000
    5       -6.611670   1.000000
    6       -6.604259   1.000000
    7       -6.153893   1.000000
    8       -6.125220   1.000000
    9       -5.223678   1.000000
   10       -5.205809   1.000000
   11       -4.728172   1.000000
   12       -4.714424   1.000000
   13       -4.367058   1.000000
   14       -4.326176   1.000000
   15       -3.525154   1.000000
   16       -3.511331   1.000000
   17       -1.495260   1.000000
   18       -1.357854   1.000000
   19        0.488456   0.000000
   20        0.497404   0.000000
   21        1.553323   0.000000
   22        1.579495   0.000000
   23        1.903848   0.000000
   24        2.043794   0.000000
   25        3.325184   0.000000
   26        3.401755   0.000000
 
 -0.3484768E+00 -0.7135822E+00  0.0000000E+00  0.6172840E-02
    1      -13.297977   1.000000
    2      -13.267309   1.000000
    3      -13.183177   1.000000
    4      -13.179805   1.000000
    5       -6.634338   1.000000
    6       -6.627044   1.000000
    7       -6.079204   1.000000
    8       -6.048530   1.000000
    9       -5.269346   1.000000
   10       -5.245299   1.000000
   11       -4.792534   1.000000
   12       -4.787492   1.000000
   13       -4.344113   1.000000
   14       -4.300614   1.000000
   15       -3.558323   1.000000
   16       -3.541095   1.000000
   17       -1.466962   1.000000
   18       -1.325993   1.000000
   19        0.454611   0.000000
   20        0.459431   0.000000
   21        1.531291   0.000000
   22        1.559475   0.000000
   23        1.940095   0.000000
   24        2.081477   0.000000
   25        3.352835   0.000000
   26        3.431244   0.000000
 
 -0.3484768E+00 -0.7004676E+00  0.0000000E+00  0.6172840E-02
    1      -13.289336   1.000000
    2      -13.258224   1.000000
    3      -13.177644   1.000000
    4      -13.174238   1.000000
    5       -6.650737   1.000000
    6       -6.643530   1.000000
    7       -6.011700   1.000000
    8       -5.979225   1.000000
    9       -5.320894   1.000000
   10       -5.292275   1.000000
   11       -4.835675   1.000000
   12       -4.834061   1.000000
   13       -4.325836   1.000000
   14       -4.279868   1.000000
   15       -3.584402   1.000000
   16       -3.564225   1.000000
   17       -1.445404   1.000000
   18       -1.301556   1.000000
   19        0.428686   0.000000
   20        0.430176   0.000000
   21        1.515296   0.000000
   22        1.544740   0.000000
   23        1.966962   0.000000
   24        2.109156   0.000000
   25        3.373140   0.000000
   26        3.452849   0.000000
 
 -0.3484768E+00 -0.6873530E+00  0.0000000E+00  0.6172840E-02
    1      -13.284127   1.000000
    2      -13.252748   1.000000
    3      -13.174295   1.000000
    4      -13.170869   1.000000
    5       -6.660659   1.000000
    6       -6.653504   1.000000
    7       -5.961622   1.000000
    8       -5.927772   1.000000
    9       -5.364074   1.000000
   10       -5.333137   1.000000
   11       -4.861873   1.000000
   12       -4.856426   1.000000
   13       -4.313993   1.000000
   14       -4.266241   1.000000
   15       -3.601204   1.000000
   16       -3.578978   1.000000
   17       -1.431888   1.000000
   18       -1.286152   1.000000
   19        0.411701   0.000000
   20        0.412386   0.000000
   21        1.505589   0.000000
   22        1.535736   0.000000
   23        1.983455   0.000000
   24        2.126069   0.000000
   25        3.385553   0.000000
   26        3.466036   0.000000
 
 -0.3484768E+00 -0.6742384E+00  0.0000000E+00  0.6172840E-02
    1      -13.282383   1.000000
    2      -13.250914   1.000000
    3      -13.173172   1.000000
    4      -13.169739   1.000000
    5       -6.663980   1.000000
    6       -6.656843   1.000000
    7       -5.942486   1.000000
    8       -5.908090   1.000000
    9       -5.381417   1.000000
   10       -5.349860   1.000000
   11       -4.870048   1.000000
   12       -4.863393   1.000000
   13       -4.309881   1.000000
   14       -4.261474   1.000000
   15       -3.607021   1.000000
   16       -3.584053   1.000000
   17       -1.427270   1.000000
   18       -1.280876   1.000000
   19        0.405386   0.000000
   20        0.406828   0.000000
   21        1.502343   0.000000
   22        1.532717   0.000000
   23        1.989023   0.000000
   24        2.131766   0.000000
   25        3.389733   0.000000
   26        3.470470   0.000000
 
 -0.3484768E+00 -0.6611238E+00  0.0000000E+00  0.6172840E-02
    1      -13.284127   1.000000
    2      -13.252748   1.000000
    3      -13.174295   1.000000
    4      -13.170869   1.000000
    5       -6.660659   1.000000
    6       -6.653504   1.000000
    7       -5.961622   1.000000
    8       -5.927772   1.000000
    9       -5.364075   1.000000
   10       -5.333137   1.000000
   11       -4.861873   1.000000
   12       -4.856426   1.000000
   13       -4.313992   1.000000
   14       -4.266240   1.000000
   15       -3.601205   1.000000
   16       -3.578979   1.000000
   17       -1.431887   1.000000
   18       -1.286151   1.000000
   19        0.411701   0.000000
   20        0.412385   0.000000
   21        1.505589   0.000000
   22        1.535736   0.000000
   23        1.983455   0.000000
   24        2.126069   0.000000
   25        3.385555   0.000000
   26        3.466037   0.000000
 
 -0.3484768E+00 -0.6480092E+00  0.0000000E+00  0.6172840E-02
    1      -13.289335   1.000000
    2      -13.258224   1.000000
    3      -13.177645   1.000000
    4      -13.174239   1.000000
    5       -6.650736   1.000000
    6       -6.643529   1.000000
    7       -6.011700   1.000000
    8       -5.979225   1.000000
    9       -5.320894   1.000000
   10       -5.292275   1.000000
   11       -4.835674   1.000000
   12       -4.834061   1.000000
   13       -4.325836   1.000000
   14       -4.279867   1.000000
   15       -3.584403   1.000000
   16       -3.564227   1.000000
   17       -1.445404   1.000000
   18       -1.301555   1.000000
   19        0.428685   0.000000
   20        0.430175   0.000000
   21        1.515296   0.000000
   22        1.544740   0.000000
   23        1.966962   0.000000
   24        2.109156   0.000000
   25        3.373144   0.000000
   26        3.452849   0.000000
 
 -0.3484768E+00 -0.6348946E+00  0.0000000E+00  0.6172840E-02
    1      -13.297977   1.000000
    2      -13.267309   1.000000
    3      -13.183177   1.000000
    4      -13.179805   1.000000
    5       -6.634336   1.000000
    6       -6.627043   1.000000
    7       -6.079204   1.000000
    8       -6.048530   1.000000
    9       -5.269346   1.000000
   10       -5.245299   1.000000
   11       -4.792533   1.000000
   12       -4.787491   1.000000
   13       -4.344112   1.000000
   14       -4.300613   1.000000
   15       -3.558325   1.000000
   16       -3.541097   1.000000
   17       -1.466961   1.000000
   18       -1.325991   1.000000
   19        0.454610   0.000000
   20        0.459430   0.000000
   21        1.531292   0.000000
   22        1.559475   0.000000
   23        1.940094   0.000000
   24        2.081477   0.000000
   25        3.352835   0.000000
   26        3.431243   0.000000
 
 -0.3484768E+00 -0.6217800E+00  0.0000000E+00  0.6172840E-02
    1      -13.309983   1.000000
    2      -13.279930   1.000000
    3      -13.190823   1.000000
    4      -13.187500   1.000000
    5       -6.611668   1.000000
    6       -6.604256   1.000000
    7       -6.153893   1.000000
    8       -6.125220   1.000000
    9       -5.223678   1.000000
   10       -5.205809   1.000000
   11       -4.728171   1.000000
   12       -4.714423   1.000000
   13       -4.367056   1.000000
   14       -4.326175   1.000000
   15       -3.525157   1.000000
   16       -3.511333   1.000000
   17       -1.495258   1.000000
   18       -1.357853   1.000000
   19        0.488454   0.000000
   20        0.497403   0.000000
   21        1.553324   0.000000
   22        1.579496   0.000000
   23        1.903847   0.000000
   24        2.043793   0.000000
   25        3.325184   0.000000
   26        3.401756   0.000000
 
 -0.3333333E+00 -0.7191251E+00  0.0000000E+00  0.6172840E-02
    1      -13.311116   1.000000
    2      -13.280980   1.000000
    3      -13.190955   1.000000
    4      -13.187618   1.000000
    5       -6.611543   1.000000
    6       -6.604104   1.000000
    7       -6.135405   1.000000
    8       -6.107440   1.000000
    9       -5.209102   1.000000
   10       -5.186516   1.000000
   11       -4.764226   1.000000
   12       -4.754755   1.000000
   13       -4.368866   1.000000
   14       -4.328071   1.000000
   15       -3.521928   1.000000
   16       -3.508038   1.000000
   17       -1.497501   1.000000
   18       -1.359902   1.000000
   19        0.486263   0.000000
   20        0.494498   0.000000
   21        1.543761   0.000000
   22        1.569895   0.000000
   23        1.902742   0.000000
   24        2.042204   0.000000
   25        3.332543   0.000000
   26        3.409215   0.000000
 
 -0.3333333E+00 -0.7060105E+00  0.0000000E+00  0.6172840E-02
    1      -13.297751   1.000000
    2      -13.266997   1.000000
    3      -13.182714   1.000000
    4      -13.179331   1.000000
    5       -6.635850   1.000000
    6       -6.628550   1.000000
    7       -6.061813   1.000000
    8       -6.031500   1.000000
    9       -5.267410   1.000000
   10       -5.239500   1.000000
   11       -4.815884   1.000000
   12       -4.814484   1.000000
   13       -4.343427   1.000000
   14       -4.299739   1.000000
   15       -3.558967   1.000000
   16       -3.541451   1.000000
   17       -1.466154   1.000000
   18       -1.324812   1.000000
   19        0.451015   0.000000
   20        0.455151   0.000000
   21        1.524725   0.000000
   22        1.552983   0.000000
   23        1.942014   0.000000
   24        2.083186   0.000000
   25        3.358696   0.000000
   26        3.437262   0.000000
 
 -0.3333333E+00 -0.6928959E+00  0.0000000E+00  0.6172840E-02
    1      -13.288127   1.000000
    2      -13.256927   1.000000
    3      -13.176753   1.000000
    4      -13.173339   1.000000
    5       -6.653428   1.000000
    6       -6.646230   1.000000
    7       -5.994101   1.000000
    8       -5.961530   1.000000
    9       -5.330457   1.000000
   10       -5.299758   1.000000
   11       -4.850730   1.000000
   12       -4.846867   1.000000
   13       -4.323035   1.000000
   14       -4.276613   1.000000
   15       -3.588260   1.000000
   16       -3.567542   1.000000
   17       -1.442190   1.000000
   18       -1.297798   1.000000
   19        0.423880   0.000000
   20        0.424656   0.000000
   21        1.510884   0.000000
   22        1.540500   0.000000
   23        1.971206   0.000000
   24        2.113409   0.000000
   25        3.377905   0.000000
   26        3.457837   0.000000
 
 -0.3333333E+00 -0.6797813E+00  0.0000000E+00  0.6172840E-02
    1      -13.282319   1.000000
    2      -13.250850   1.000000
    3      -13.173142   1.000000
    4      -13.169709   1.000000
    5       -6.664055   1.000000
    6       -6.656919   1.000000
    7       -5.942745   1.000000
    8       -5.908296   1.000000
    9       -5.381834   1.000000
   10       -5.350450   1.000000
   11       -4.869295   1.000000
   12       -4.862763   1.000000
   13       -4.309741   1.000000
   14       -4.261317   1.000000
   15       -3.607236   1.000000
   16       -3.584252   1.000000
   17       -1.427114   1.000000
   18       -1.280711   1.000000
   19        0.405309   0.000000
   20        0.406751   0.000000
   21        1.502489   0.000000
   22        1.532872   0.000000
   23        1.989175   0.000000
   24        2.131935   0.000000
   25        3.389658   0.000000
   26        3.470406   0.000000
 
 -0.3333333E+00 -0.6666667E+00  0.0000000E+00  0.6172840E-02
    1      -13.280378   1.000000
    2      -13.248820   1.000000
    3      -13.171942   1.000000
    4      -13.168503   1.000000
    5       -6.667617   1.000000
    6       -6.660502   1.000000
    7       -5.922758   1.000000
    8       -5.887510   1.000000
    9       -5.402309   1.000000
   10       -5.370968   1.000000
   11       -4.874935   1.000000
   12       -4.867614   1.000000
   13       -4.305112   1.000000
   14       -4.255948   1.000000
   15       -3.613838   1.000000
   16       -3.590026   1.000000
   17       -1.421984   1.000000
   18       -1.274874   1.000000
   19        0.398676   0.000000
   20        0.400895   0.000000
   21        1.499665   0.000000
   22        1.530296   0.000000
   23        1.995233   0.000000
   24        2.138172   0.000000
   25        3.393590   0.000000
   26        3.474606   0.000000
 
 -0.3333333E+00 -0.6535521E+00  0.0000000E+00  0.6172840E-02
    1      -13.282318   1.000000
    2      -13.250849   1.000000
    3      -13.173142   1.000000
    4      -13.169709   1.000000
    5       -6.664055   1.000000
    6       -6.656918   1.000000
    7       -5.942745   1.000000
    8       -5.908296   1.000000
    9       -5.381834   1.000000
   10       -5.350451   1.000000
   11       -4.869294   1.000000
   12       -4.862762   1.000000
   13       -4.309740   1.000000
   14       -4.261317   1.000000
   15       -3.607237   1.000000
   16       -3.584253   1.000000
   17       -1.427114   1.000000
   18       -1.280710   1.000000
   19        0.405308   0.000000
   20        0.406750   0.000000
   21        1.502490   0.000000
   22        1.532872   0.000000
   23        1.989175   0.000000
   24        2.131935   0.000000
   25        3.389648   0.000000
   26        3.470393   0.000000
 
 -0.3333333E+00 -0.6404375E+00  0.0000000E+00  0.6172840E-02
    1      -13.288127   1.000000
    2      -13.256927   1.000000
    3      -13.176754   1.000000
    4      -13.173339   1.000000
    5       -6.653426   1.000000
    6       -6.646228   1.000000
    7       -5.994101   1.000000
    8       -5.961530   1.000000
    9       -5.330458   1.000000
   10       -5.299759   1.000000
   11       -4.850729   1.000000
   12       -4.846866   1.000000
   13       -4.323035   1.000000
   14       -4.276612   1.000000
   15       -3.588262   1.000000
   16       -3.567543   1.000000
   17       -1.442189   1.000000
   18       -1.297797   1.000000
   19        0.423880   0.000000
   20        0.424655   0.000000
   21        1.510885   0.000000
   22        1.540501   0.000000
   23        1.971206   0.000000
   24        2.113408   0.000000
   25        3.377910   0.000000
   26        3.457839   0.000000
 
 -0.3333333E+00 -0.6273229E+00  0.0000000E+00  0.6172840E-02
    1      -13.297751   1.000000
    2      -13.266997   1.000000
    3      -13.182714   1.000000
    4      -13.179331   1.000000
    5       -6.635848   1.000000
    6       -6.628548   1.000000
    7       -6.061813   1.000000
    8       -6.031500   1.000000
    9       -5.267411   1.000000
   10       -5.239502   1.000000
   11       -4.815882   1.000000
   12       -4.814482   1.000000
   13       -4.343426   1.000000
   14       -4.299738   1.000000
   15       -3.558970   1.000000
   16       -3.541453   1.000000
   17       -1.466152   1.000000
   18       -1.324811   1.000000
   19        0.451014   0.000000
   20        0.455149   0.000000
   21        1.524726   0.000000
   22        1.552984   0.000000
   23        1.942013   0.000000
   24        2.083185   0.000000
   25        3.358702   0.000000
   26        3.437265   0.000000
 
 -0.3333333E+00 -0.6142083E+00  0.0000000E+00  0.6172840E-02
    1      -13.311115   1.000000
    2      -13.280979   1.000000
    3      -13.190956   1.000000
    4      -13.187619   1.000000
    5       -6.611541   1.000000
    6       -6.604102   1.000000
    7       -6.135405   1.000000
    8       -6.107440   1.000000
    9       -5.209103   1.000000
   10       -5.186517   1.000000
   11       -4.764225   1.000000
   12       -4.754753   1.000000
   13       -4.368865   1.000000
   14       -4.328070   1.000000
   15       -3.521931   1.000000
   16       -3.508040   1.000000
   17       -1.497499   1.000000
   18       -1.359900   1.000000
   19        0.486262   0.000000
   20        0.494496   0.000000
   21        1.543762   0.000000
   22        1.569896   0.000000
   23        1.902741   0.000000
   24        2.042204   0.000000
   25        3.332534   0.000000
   26        3.409171   0.000000
 
 -0.3181899E+00 -0.7115534E+00  0.0000000E+00  0.6172840E-02
    1      -13.316048   1.000000
    2      -13.286004   1.000000
    3      -13.193425   1.000000
    4      -13.190087   1.000000
    5       -6.604525   1.000000
    6       -6.597018   1.000000
    7       -6.135218   1.000000
    8       -6.108569   1.000000
    9       -5.178749   1.000000
   10       -5.151823   1.000000
   11       -4.787491   1.000000
   12       -4.781164   1.000000
   13       -4.377394   1.000000
   14       -4.337344   1.000000
   15       -3.508812   1.000000
   16       -3.495752   1.000000
   17       -1.508278   1.000000
   18       -1.371464   1.000000
   19        0.493598   0.000000
   20        0.502182   0.000000
   21        1.539572   0.000000
   22        1.565014   0.000000
   23        1.890793   0.000000
   24        2.029231   0.000000
   25        3.332531   0.000000
   26        3.408748   0.000000
 
 -0.3181899E+00 -0.6984388E+00  0.0000000E+00  0.6172840E-02
    1      -13.301357   1.000000
    2      -13.270695   1.000000
    3      -13.184621   1.000000
    4      -13.181240   1.000000
    5       -6.630374   1.000000
    6       -6.623027   1.000000
    7       -6.067903   1.000000
    8       -6.038722   1.000000
    9       -5.244147   1.000000
   10       -5.213233   1.000000
   11       -4.827136   1.000000
   12       -4.826623   1.000000
   13       -4.350410   1.000000
   14       -4.307471   1.000000
   15       -3.548524   1.000000
   16       -3.531855   1.000000
   17       -1.474585   1.000000
   18       -1.334009   1.000000
   19        0.457857   0.000000
   20        0.462559   0.000000
   21        1.523651   0.000000
   22        1.551414   0.000000
   23        1.932512   0.000000
   24        2.073029   0.000000
   25        3.356977   0.000000
   26        3.435191   0.000000
 
 -0.3181899E+00 -0.6853242E+00  0.0000000E+00  0.6172840E-02
    1      -13.290776   1.000000
    2      -13.259667   1.000000
    3      -13.178254   1.000000
    4      -13.174844   1.000000
    5       -6.649056   1.000000
    6       -6.641826   1.000000
    7       -6.006494   1.000000
    8       -5.974860   1.000000
    9       -5.310788   1.000000
   10       -5.278754   1.000000
   11       -4.852590   1.000000
   12       -4.848336   1.000000
   13       -4.328720   1.000000
   14       -4.283044   1.000000
   15       -3.579964   1.000000
   16       -3.560086   1.000000
   17       -1.448774   1.000000
   18       -1.305117   1.000000
   19        0.430203   0.000000
   20        0.431673   0.000000
   21        1.512052   0.000000
   22        1.541314   0.000000
   23        1.963635   0.000000
   24        2.105455   0.000000
   25        3.374919   0.000000
   26        3.454533   0.000000
 
 -0.3181899E+00 -0.6722095E+00  0.0000000E+00  0.6172840E-02
    1      -13.284389   1.000000
    2      -13.253010   1.000000
    3      -13.174403   1.000000
    4      -13.170976   1.000000
    5       -6.660352   1.000000
    6       -6.653193   1.000000
    7       -5.960608   1.000000
    8       -5.926952   1.000000
    9       -5.362358   1.000000
   10       -5.330747   1.000000
   11       -4.864902   1.000000
   12       -4.858964   1.000000
   13       -4.314544   1.000000
   14       -4.266854   1.000000
   15       -3.600356   1.000000
   16       -3.578193   1.000000
   17       -1.432514   1.000000
   18       -1.286817   1.000000
   19        0.411997   0.000000
   20        0.412682   0.000000
   21        1.505002   0.000000
   22        1.535116   0.000000
   23        1.982840   0.000000
   24        2.125385   0.000000
   25        3.385882   0.000000
   26        3.466350   0.000000
 
 -0.3181899E+00 -0.6590949E+00  0.0000000E+00  0.6172840E-02
    1      -13.282255   1.000000
    2      -13.250786   1.000000
    3      -13.173118   1.000000
    4      -13.169686   1.000000
    5       -6.664132   1.000000
    6       -6.656997   1.000000
    7       -5.943007   1.000000
    8       -5.908505   1.000000
    9       -5.382250   1.000000
   10       -5.351040   1.000000
   11       -4.868546   1.000000
   12       -4.862137   1.000000
   13       -4.309601   1.000000
   14       -4.261162   1.000000
   15       -3.607455   1.000000
   16       -3.584454   1.000000
   17       -1.426964   1.000000
   18       -1.280550   1.000000
   19        0.405235   0.000000
   20        0.406677   0.000000
   21        1.502629   0.000000
   22        1.533019   0.000000
   23        1.989327   0.000000
   24        2.132105   0.000000
   25        3.389563   0.000000
   26        3.470312   0.000000
 
 -0.3181899E+00 -0.6459803E+00  0.0000000E+00  0.6172840E-02
    1      -13.284388   1.000000
    2      -13.253010   1.000000
    3      -13.174403   1.000000
    4      -13.170976   1.000000
    5       -6.660351   1.000000
    6       -6.653192   1.000000
    7       -5.960608   1.000000
    8       -5.926952   1.000000
    9       -5.362359   1.000000
   10       -5.330748   1.000000
   11       -4.864901   1.000000
   12       -4.858963   1.000000
   13       -4.314544   1.000000
   14       -4.266854   1.000000
   15       -3.600356   1.000000
   16       -3.578193   1.000000
   17       -1.432514   1.000000
   18       -1.286816   1.000000
   19        0.411997   0.000000
   20        0.412681   0.000000
   21        1.505002   0.000000
   22        1.535116   0.000000
   23        1.982840   0.000000
   24        2.125384   0.000000
   25        3.385885   0.000000
   26        3.466355   0.000000
 
 -0.3181899E+00 -0.6328657E+00  0.0000000E+00  0.6172840E-02
    1      -13.290776   1.000000
    2      -13.259667   1.000000
    3      -13.178255   1.000000
    4      -13.174844   1.000000
    5       -6.649055   1.000000
    6       -6.641824   1.000000
    7       -6.006493   1.000000
    8       -5.974860   1.000000
    9       -5.310790   1.000000
   10       -5.278756   1.000000
   11       -4.852588   1.000000
   12       -4.848334   1.000000
   13       -4.328719   1.000000
   14       -4.283043   1.000000
   15       -3.579966   1.000000
   16       -3.560088   1.000000
   17       -1.448774   1.000000
   18       -1.305116   1.000000
   19        0.430202   0.000000
   20        0.431672   0.000000
   21        1.512052   0.000000
   22        1.541315   0.000000
   23        1.963634   0.000000
   24        2.105454   0.000000
   25        3.374918   0.000000
   26        3.454532   0.000000
 
 -0.3181899E+00 -0.6197511E+00  0.0000000E+00  0.6172840E-02
    1      -13.301357   1.000000
    2      -13.270695   1.000000
    3      -13.184622   1.000000
    4      -13.181241   1.000000
    5       -6.630372   1.000000
    6       -6.623025   1.000000
    7       -6.067903   1.000000
    8       -6.038721   1.000000
    9       -5.244149   1.000000
   10       -5.213235   1.000000
   11       -4.827133   1.000000
   12       -4.826621   1.000000
   13       -4.350410   1.000000
   14       -4.307470   1.000000
   15       -3.548526   1.000000
   16       -3.531857   1.000000
   17       -1.474583   1.000000
   18       -1.334008   1.000000
   19        0.457856   0.000000
   20        0.462558   0.000000
   21        1.523652   0.000000
   22        1.551415   0.000000
   23        1.932511   0.000000
   24        2.073028   0.000000
   25        3.356979   0.000000
   26        3.435183   0.000000
 
 -0.3181899E+00 -0.6066365E+00  0.0000000E+00  0.6172840E-02
    1      -13.316047   1.000000
    2      -13.286003   1.000000
    3      -13.193426   1.000000
    4      -13.190088   1.000000
    5       -6.604523   1.000000
    6       -6.597016   1.000000
    7       -6.135218   1.000000
    8       -6.108569   1.000000
    9       -5.178752   1.000000
   10       -5.151826   1.000000
   11       -4.787489   1.000000
   12       -4.781161   1.000000
   13       -4.377393   1.000000
   14       -4.337343   1.000000
   15       -3.508815   1.000000
   16       -3.495755   1.000000
   17       -1.508277   1.000000
   18       -1.371462   1.000000
   19        0.493597   0.000000
   20        0.502181   0.000000
   21        1.539573   0.000000
   22        1.565015   0.000000
   23        1.890792   0.000000
   24        2.029230   0.000000
   25        3.332527   0.000000
   26        3.408675   0.000000
 
 -0.3030465E+00 -0.7039816E+00  0.0000000E+00  0.6172840E-02
    1      -13.324344   1.000000
    2      -13.294565   1.000000
    3      -13.198035   1.000000
    4      -13.194712   1.000000
    5       -6.591110   1.000000
    6       -6.583503   1.000000
    7       -6.153488   1.000000
    8       -6.128395   1.000000
    9       -5.139354   1.000000
   10       -5.110451   1.000000
   11       -4.791404   1.000000
   12       -4.785458   1.000000
   13       -4.391291   1.000000
   14       -4.352468   1.000000
   15       -3.487689   1.000000
   16       -3.476171   1.000000
   17       -1.526204   1.000000
   18       -1.391021   1.000000
   19        0.509561   0.000000
   20        0.519461   0.000000
   21        1.541623   0.000000
   22        1.565729   0.000000
   23        1.869314   0.000000
   24        2.006245   0.000000
   25        3.324769   0.000000
   26        3.399894   0.000000
 
 -0.3030465E+00 -0.6908670E+00  0.0000000E+00  0.6172840E-02
    1      -13.308384   1.000000
    2      -13.277989   1.000000
    3      -13.188716   1.000000
    4      -13.185351   1.000000
    5       -6.618415   1.000000
    6       -6.610987   1.000000
    7       -6.096532   1.000000
    8       -6.068808   1.000000
    9       -5.206601   1.000000
   10       -5.175461   1.000000
   11       -4.819014   1.000000
   12       -4.818211   1.000000
   13       -4.363681   1.000000
   14       -4.322198   1.000000
   15       -3.528969   1.000000
   16       -3.514052   1.000000
   17       -1.490919   1.000000
   18       -1.352103   1.000000
   19        0.474221   0.000000
   20        0.480637   0.000000
   21        1.528905   0.000000
   22        1.555623   0.000000
   23        1.912808   0.000000
   24        2.052298   0.000000
   25        3.347280   0.000000
   26        3.424543   0.000000
 
 -0.3030465E+00 -0.6777524E+00  0.0000000E+00  0.6172840E-02
    1      -13.296875   1.000000
    2      -13.266034   1.000000
    3      -13.181973   1.000000
    4      -13.178581   1.000000
    5       -6.638132   1.000000
    6       -6.630836   1.000000
    7       -6.045973   1.000000
    8       -6.015774   1.000000
    9       -5.270437   1.000000
   10       -5.239484   1.000000
   11       -4.834823   1.000000
   12       -4.833195   1.000000
   13       -4.341504   1.000000
   14       -4.297505   1.000000
   15       -3.561526   1.000000
   16       -3.543603   1.000000
   17       -1.463855   1.000000
   18       -1.322058   1.000000
   19        0.446759   0.000000
   20        0.450226   0.000000
   21        1.519620   0.000000
   22        1.548028   0.000000
   23        1.945413   0.000000
   24        2.086535   0.000000
   25        3.363785   0.000000
   26        3.442558   0.000000
 
 -0.3030465E+00 -0.6646378E+00  0.0000000E+00  0.6172840E-02
    1      -13.289925   1.000000
    2      -13.258815   1.000000
    3      -13.177895   1.000000
    4      -13.174487   1.000000
    5       -6.650050   1.000000
    6       -6.642833   1.000000
    7       -6.009570   1.000000
    8       -5.977437   1.000000
    9       -5.316844   1.000000
   10       -5.286880   1.000000
   11       -4.842461   1.000000
   12       -4.839818   1.000000
   13       -4.327019   1.000000
   14       -4.281171   1.000000
   15       -3.582582   1.000000
   16       -3.562529   1.000000
   17       -1.446787   1.000000
   18       -1.303016   1.000000
   19        0.429311   0.000000
   20        0.430793   0.000000
   21        1.513964   0.000000
   22        1.543334   0.000000
   23        1.965597   0.000000
   24        2.107638   0.000000
   25        3.373869   0.000000
   26        3.453539   0.000000
 
 -0.3030465E+00 -0.6515232E+00  0.0000000E+00  0.6172840E-02
    1      -13.287602   1.000000
    2      -13.256402   1.000000
    3      -13.176531   1.000000
    4      -13.173118   1.000000
    5       -6.654039   1.000000
    6       -6.646849   1.000000
    7       -5.996034   1.000000
    8       -5.963135   1.000000
    9       -5.334017   1.000000
   10       -5.304565   1.000000
   11       -4.844671   1.000000
   12       -4.841752   1.000000
   13       -4.321967   1.000000
   14       -4.275432   1.000000
   15       -3.589901   1.000000
   16       -3.569068   1.000000
   17       -1.440950   1.000000
   18       -1.296487   1.000000
   19        0.423315   0.000000
   20        0.424096   0.000000
   21        1.512070   0.000000
   22        1.541752   0.000000
   23        1.972428   0.000000
   24        2.114767   0.000000
   25        3.377255   0.000000
   26        3.457223   0.000000
 
 -0.3030465E+00 -0.6384086E+00  0.0000000E+00  0.6172840E-02
    1      -13.289925   1.000000
    2      -13.258814   1.000000
    3      -13.177895   1.000000
    4      -13.174487   1.000000
    5       -6.650049   1.000000
    6       -6.642833   1.000000
    7       -6.009569   1.000000
    8       -5.977437   1.000000
    9       -5.316845   1.000000
   10       -5.286881   1.000000
   11       -4.842460   1.000000
   12       -4.839817   1.000000
   13       -4.327019   1.000000
   14       -4.281171   1.000000
   15       -3.582583   1.000000
   16       -3.562530   1.000000
   17       -1.446787   1.000000
   18       -1.303016   1.000000
   19        0.429310   0.000000
   20        0.430792   0.000000
   21        1.513964   0.000000
   22        1.543334   0.000000
   23        1.965597   0.000000
   24        2.107638   0.000000
   25        3.373869   0.000000
   26        3.453539   0.000000
 
 -0.3030465E+00 -0.6252940E+00  0.0000000E+00  0.6172840E-02
    1      -13.296874   1.000000
    2      -13.266033   1.000000
    3      -13.181973   1.000000
    4      -13.178581   1.000000
    5       -6.638131   1.000000
    6       -6.630835   1.000000
    7       -6.045972   1.000000
    8       -6.015774   1.000000
    9       -5.270439   1.000000
   10       -5.239486   1.000000
   11       -4.834821   1.000000
   12       -4.833193   1.000000
   13       -4.341504   1.000000
   14       -4.297504   1.000000
   15       -3.561527   1.000000
   16       -3.543605   1.000000
   17       -1.463854   1.000000
   18       -1.322057   1.000000
   19        0.446758   0.000000
   20        0.450225   0.000000
   21        1.519620   0.000000
   22        1.548029   0.000000
   23        1.945413   0.000000
   24        2.086534   0.000000
   25        3.363823   0.000000
   26        3.442558   0.000000
 
 -0.3030465E+00 -0.6121794E+00  0.0000000E+00  0.6172840E-02
    1      -13.308383   1.000000
    2      -13.277988   1.000000
    3      -13.188716   1.000000
    4      -13.185352   1.000000
    5       -6.618413   1.000000
    6       -6.610985   1.000000
    7       -6.096531   1.000000
    8       -6.068808   1.000000
    9       -5.206604   1.000000
   10       -5.175464   1.000000
   11       -4.819011   1.000000
   12       -4.818207   1.000000
   13       -4.363681   1.000000
   14       -4.322197   1.000000
   15       -3.528971   1.000000
   16       -3.514054   1.000000
   17       -1.490918   1.000000
   18       -1.352102   1.000000
   19        0.474220   0.000000
   20        0.480636   0.000000
   21        1.528906   0.000000
   22        1.555624   0.000000
   23        1.912807   0.000000
   24        2.052297   0.000000
   25        3.347277   0.000000
   26        3.424535   0.000000
 
 -0.3030465E+00 -0.5990648E+00  0.0000000E+00  0.6172840E-02
    1      -13.324343   1.000000
    2      -13.294565   1.000000
    3      -13.198036   1.000000
    4      -13.194713   1.000000
    5       -6.591108   1.000000
    6       -6.583501   1.000000
    7       -6.153488   1.000000
    8       -6.128394   1.000000
    9       -5.139358   1.000000
   10       -5.110455   1.000000
   11       -4.791400   1.000000
   12       -4.785454   1.000000
   13       -4.391290   1.000000
   14       -4.352467   1.000000
   15       -3.487691   1.000000
   16       -3.476173   1.000000
   17       -1.526202   1.000000
   18       -1.391019   1.000000
   19        0.509560   0.000000
   20        0.519460   0.000000
   21        1.541624   0.000000
   22        1.565730   0.000000
   23        1.869313   0.000000
   24        2.006244   0.000000
   25        3.324766   0.000000
   26        3.399891   0.000000
 
 -0.2879030E+00 -0.6964099E+00  0.0000000E+00  0.6172840E-02
    1      -13.335574   1.000000
    2      -13.306231   1.000000
    3      -13.204576   1.000000
    4      -13.201285   1.000000
    5       -6.571893   1.000000
    6       -6.564162   1.000000
    7       -6.187655   1.000000
    8       -6.164079   1.000000
    9       -5.104977   1.000000
   10       -5.079044   1.000000
   11       -4.764997   1.000000
   12       -4.754294   1.000000
   13       -4.408855   1.000000
   14       -4.371465   1.000000
   15       -3.460848   1.000000
   16       -3.451345   1.000000
   17       -1.549609   1.000000
   18       -1.416702   1.000000
   19        0.532738   0.000000
   20        0.544738   0.000000
   21        1.550650   0.000000
   22        1.572655   0.000000
   23        1.839929   0.000000
   24        1.974776   0.000000
   25        3.309059   0.000000
   26        3.382637   0.000000
 
 -0.2879030E+00 -0.6832953E+00  0.0000000E+00  0.6172840E-02
    1      -13.318390   1.000000
    2      -13.288435   1.000000
    3      -13.194779   1.000000
    4      -13.191447   1.000000
    5       -6.600553   1.000000
    6       -6.593020   1.000000
    7       -6.142820   1.000000
    8       -6.116568   1.000000
    9       -5.169230   1.000000
   10       -5.142503   1.000000
   11       -4.783957   1.000000
   12       -4.776995   1.000000
   13       -4.381400   1.000000
   14       -4.341724   1.000000
   15       -3.502797   1.000000
   16       -3.490220   1.000000
   17       -1.513421   1.000000
   18       -1.377124   1.000000
   19        0.498654   0.000000
   20        0.507722   0.000000
   21        1.541235   0.000000
   22        1.566288   0.000000
   23        1.884470   0.000000
   24        2.022517   0.000000
   25        3.329413   0.000000
   26        3.405250   0.000000
 
 -0.2879030E+00 -0.6701807E+00  0.0000000E+00  0.6172840E-02
    1      -13.305988   1.000000
    2      -13.275589   1.000000
    3      -13.187690   1.000000
    4      -13.184332   1.000000
    5       -6.621236   1.000000
    6       -6.613847   1.000000
    7       -6.104242   1.000000
    8       -6.075575   1.000000
    9       -5.226312   1.000000
   10       -5.200313   1.000000
   11       -4.793285   1.000000
   12       -4.788151   1.000000
   13       -4.359412   1.000000
   14       -4.317580   1.000000
   15       -3.535667   1.000000
   16       -3.520407   1.000000
   17       -1.485651   1.000000
   18       -1.346578   1.000000
   19        0.472059   0.000000
   20        0.478588   0.000000
   21        1.534330   0.000000
   22        1.561340   0.000000
   23        1.918054   0.000000
   24        2.058146   0.000000
   25        3.344362   0.000000
   26        3.421794   0.000000
 
 -0.2879030E+00 -0.6570661E+00  0.0000000E+00  0.6172840E-02
    1      -13.298497   1.000000
    2      -13.267830   1.000000
    3      -13.183397   1.000000
    4      -13.180023   1.000000
    5       -6.633728   1.000000
    6       -6.626426   1.000000
    7       -6.077464   1.000000
    8       -6.047016   1.000000
    9       -5.265731   1.000000
   10       -5.240761   1.000000
   11       -4.797514   1.000000
   12       -4.793198   1.000000
   13       -4.345087   1.000000
   14       -4.301676   1.000000
   15       -3.556808   1.000000
   16       -3.539668   1.000000
   17       -1.468137   1.000000
   18       -1.327228   1.000000
   19        0.455118   0.000000
   20        0.459921   0.000000
   21        1.530119   0.000000
   22        1.558237   0.000000
   23        1.938923   0.000000
   24        2.080172   0.000000
   25        3.353475   0.000000
   26        3.431848   0.000000
 
 -0.2879030E+00 -0.6439515E+00  0.0000000E+00  0.6172840E-02
    1      -13.295992   1.000000
    2      -13.265235   1.000000
    3      -13.181961   1.000000
    4      -13.178583   1.000000
    5       -6.637905   1.000000
    6       -6.630633   1.000000
    7       -6.067770   1.000000
    8       -6.036651   1.000000
    9       -5.279863   1.000000
   10       -5.255351   1.000000
   11       -4.798727   1.000000
   12       -4.794645   1.000000
   13       -4.340096   1.000000
   14       -4.296101   1.000000
   15       -3.564130   1.000000
   16       -3.546306   1.000000
   17       -1.462146   1.000000
   18       -1.320594   1.000000
   19        0.449289   0.000000
   20        0.453478   0.000000
   21        1.528701   0.000000
   22        1.557179   0.000000
   23        1.945999   0.000000
   24        2.087622   0.000000
   25        3.356541   0.000000
   26        3.435228   0.000000
 
 -0.2879030E+00 -0.6308369E+00  0.0000000E+00  0.6172840E-02
    1      -13.298497   1.000000
    2      -13.267830   1.000000
    3      -13.183397   1.000000
    4      -13.180023   1.000000
    5       -6.633727   1.000000
    6       -6.626426   1.000000
    7       -6.077463   1.000000
    8       -6.047016   1.000000
    9       -5.265732   1.000000
   10       -5.240762   1.000000
   11       -4.797513   1.000000
   12       -4.793197   1.000000
   13       -4.345087   1.000000
   14       -4.301676   1.000000
   15       -3.556808   1.000000
   16       -3.539668   1.000000
   17       -1.468136   1.000000
   18       -1.327228   1.000000
   19        0.455118   0.000000
   20        0.459920   0.000000
   21        1.530120   0.000000
   22        1.558238   0.000000
   23        1.938923   0.000000
   24        2.080171   0.000000
   25        3.353476   0.000000
   26        3.431849   0.000000
 
 -0.2879030E+00 -0.6177223E+00  0.0000000E+00  0.6172840E-02
    1      -13.305988   1.000000
    2      -13.275589   1.000000
    3      -13.187690   1.000000
    4      -13.184332   1.000000
    5       -6.621235   1.000000
    6       -6.613845   1.000000
    7       -6.104242   1.000000
    8       -6.075574   1.000000
    9       -5.226314   1.000000
   10       -5.200316   1.000000
   11       -4.793283   1.000000
   12       -4.788149   1.000000
   13       -4.359412   1.000000
   14       -4.317579   1.000000
   15       -3.535668   1.000000
   16       -3.520408   1.000000
   17       -1.485650   1.000000
   18       -1.346577   1.000000
   19        0.472058   0.000000
   20        0.478587   0.000000
   21        1.534330   0.000000
   22        1.561340   0.000000
   23        1.918053   0.000000
   24        2.058145   0.000000
   25        3.344350   0.000000
   26        3.421777   0.000000
 
 -0.2879030E+00 -0.6046077E+00  0.0000000E+00  0.6172840E-02
    1      -13.318390   1.000000
    2      -13.288434   1.000000
    3      -13.194780   1.000000
    4      -13.191448   1.000000
    5       -6.600551   1.000000
    6       -6.593018   1.000000
    7       -6.142819   1.000000
    8       -6.116567   1.000000
    9       -5.169234   1.000000
   10       -5.142507   1.000000
   11       -4.783954   1.000000
   12       -4.776991   1.000000
   13       -4.381399   1.000000
   14       -4.341724   1.000000
   15       -3.502799   1.000000
   16       -3.490222   1.000000
   17       -1.513420   1.000000
   18       -1.377123   1.000000
   19        0.498653   0.000000
   20        0.507720   0.000000
   21        1.541236   0.000000
   22        1.566289   0.000000
   23        1.884469   0.000000
   24        2.022516   0.000000
   25        3.329412   0.000000
   26        3.405252   0.000000
 
 -0.2879030E+00 -0.5914931E+00  0.0000000E+00  0.6172840E-02
    1      -13.335573   1.000000
    2      -13.306230   1.000000
    3      -13.204577   1.000000
    4      -13.201286   1.000000
    5       -6.571891   1.000000
    6       -6.564160   1.000000
    7       -6.187655   1.000000
    8       -6.164078   1.000000
    9       -5.104982   1.000000
   10       -5.079049   1.000000
   11       -4.764993   1.000000
   12       -4.754289   1.000000
   13       -4.408855   1.000000
   14       -4.371464   1.000000
   15       -3.460850   1.000000
   16       -3.451347   1.000000
   17       -1.549607   1.000000
   18       -1.416700   1.000000
   19        0.532737   0.000000
   20        0.544737   0.000000
   21        1.550651   0.000000
   22        1.572656   0.000000
   23        1.839928   0.000000
   24        1.974775   0.000000
   25        3.309057   0.000000
   26        3.382637   0.000000
 
 -0.2727596E+00 -0.6888382E+00  0.0000000E+00  0.6172840E-02
    1      -13.349282   1.000000
    2      -13.320538   1.000000
    3      -13.212814   1.000000
    4      -13.209572   1.000000
    5       -6.547550   1.000000
    6       -6.539680   1.000000
    7       -6.233915   1.000000
    8       -6.211718   1.000000
    9       -5.088199   1.000000
   10       -5.069126   1.000000
   11       -4.700222   1.000000
   12       -4.680564   1.000000
   13       -4.428307   1.000000
   14       -4.392170   1.000000
   15       -3.430566   1.000000
   16       -3.423345   1.000000
   17       -1.576717   1.000000
   18       -1.446514   1.000000
   19        0.561468   0.000000
   20        0.576139   0.000000
   21        1.567280   0.000000
   22        1.585994   0.000000
   23        1.804653   0.000000
   24        1.936414   0.000000
   25        3.285470   0.000000
   26        3.357004   0.000000
 
 -0.2727596E+00 -0.6757236E+00  0.0000000E+00  0.6172840E-02
    1      -13.330921   1.000000
    2      -13.301572   1.000000
    3      -13.202576   1.000000
    4      -13.199294   1.000000
    5       -6.577453   1.000000
    6       -6.569796   1.000000
    7       -6.201069   1.000000
    8       -6.176210   1.000000
    9       -5.145249   1.000000
   10       -5.126167   1.000000
   11       -4.714593   1.000000
   12       -4.697957   1.000000
   13       -4.401610   1.000000
   14       -4.363673   1.000000
   15       -3.472532   1.000000
   16       -3.462598   1.000000
   17       -1.540209   1.000000
   18       -1.406931   1.000000
   19        0.529400   0.000000
   20        0.541808   0.000000
   21        1.561261   0.000000
   22        1.583770   0.000000
   23        1.849359   0.000000
   24        1.985293   0.000000
   25        3.303505   0.000000
   26        3.377418   0.000000
 
 -0.2727596E+00 -0.6626090E+00  0.0000000E+00  0.6172840E-02
    1      -13.317667   1.000000
    2      -13.287879   1.000000
    3      -13.195163   1.000000
    4      -13.191855   1.000000
    5       -6.599022   1.000000
    6       -6.591521   1.000000
    7       -6.173511   1.000000
    8       -6.146348   1.000000
    9       -5.193509   1.000000
   10       -5.175188   1.000000
   11       -4.721926   1.000000
   12       -4.707013   1.000000
   13       -4.380319   1.000000
   14       -4.340654   1.000000
   15       -3.505168   1.000000
   16       -3.492909   1.000000
   17       -1.512205   1.000000
   18       -1.376421   1.000000
   19        0.504254   0.000000
   20        0.514629   0.000000
   21        1.556801   0.000000
   22        1.581685   0.000000
   23        1.883348   0.000000
   24        2.021903   0.000000
   25        3.316739   0.000000
   26        3.392381   0.000000
 
 -0.2727596E+00 -0.6494944E+00  0.0000000E+00  0.6172840E-02
    1      -13.309661   1.000000
    2      -13.279607   1.000000
    3      -13.190684   1.000000
    4      -13.187362   1.000000
    5       -6.612049   1.000000
    6       -6.604643   1.000000
    7       -6.154886   1.000000
    8       -6.126108   1.000000
    9       -5.225748   1.000000
   10       -5.208251   1.000000
   11       -4.725339   1.000000
   12       -4.711301   1.000000
   13       -4.366504   1.000000
   14       -4.325575   1.000000
   15       -3.526029   1.000000
   16       -3.512163   1.000000
   17       -1.494563   1.000000
   18       -1.357125   1.000000
   19        0.488178   0.000000
   20        0.497145   0.000000
   21        1.554053   0.000000
   22        1.580265   0.000000
   23        1.904550   0.000000
   24        2.044578   0.000000
   25        3.324793   0.000000
   26        3.401386   0.000000
 
 -0.2727596E+00 -0.6363798E+00  0.0000000E+00  0.6172840E-02
    1      -13.306985   1.000000
    2      -13.276843   1.000000
    3      -13.189179   1.000000
    4      -13.185852   1.000000
    5       -6.616404   1.000000
    6       -6.609029   1.000000
    7       -6.148265   1.000000
    8       -6.118899   1.000000
    9       -5.237081   1.000000
   10       -5.219930   1.000000
   11       -4.726329   1.000000
   12       -4.712559   1.000000
   13       -4.361701   1.000000
   14       -4.320305   1.000000
   15       -3.533226   1.000000
   16       -3.518781   1.000000
   17       -1.488528   1.000000
   18       -1.350512   1.000000
   19        0.482648   0.000000
   20        0.491112   0.000000
   21        1.553130   0.000000
   22        1.579771   0.000000
   23        1.911760   0.000000
   24        2.052264   0.000000
   25        3.327502   0.000000
   26        3.404430   0.000000
 
 -0.2727596E+00 -0.6232652E+00  0.0000000E+00  0.6172840E-02
    1      -13.309661   1.000000
    2      -13.279607   1.000000
    3      -13.190684   1.000000
    4      -13.187362   1.000000
    5       -6.612048   1.000000
    6       -6.604642   1.000000
    7       -6.154885   1.000000
    8       -6.126107   1.000000
    9       -5.225749   1.000000
   10       -5.208253   1.000000
   11       -4.725338   1.000000
   12       -4.711300   1.000000
   13       -4.366504   1.000000
   14       -4.325575   1.000000
   15       -3.526030   1.000000
   16       -3.512164   1.000000
   17       -1.494562   1.000000
   18       -1.357124   1.000000
   19        0.488177   0.000000
   20        0.497144   0.000000
   21        1.554054   0.000000
   22        1.580265   0.000000
   23        1.904550   0.000000
   24        2.044577   0.000000
   25        3.324791   0.000000
   26        3.401386   0.000000
 
 -0.2727596E+00 -0.6101506E+00  0.0000000E+00  0.6172840E-02
    1      -13.317667   1.000000
    2      -13.287879   1.000000
    3      -13.195164   1.000000
    4      -13.191856   1.000000
    5       -6.599021   1.000000
    6       -6.591520   1.000000
    7       -6.173510   1.000000
    8       -6.146347   1.000000
    9       -5.193512   1.000000
   10       -5.175190   1.000000
   11       -4.721924   1.000000
   12       -4.707011   1.000000
   13       -4.380319   1.000000
   14       -4.340654   1.000000
   15       -3.505169   1.000000
   16       -3.492910   1.000000
   17       -1.512204   1.000000
   18       -1.376420   1.000000
   19        0.504253   0.000000
   20        0.514629   0.000000
   21        1.556802   0.000000
   22        1.581686   0.000000
   23        1.883348   0.000000
   24        2.021902   0.000000
   25        3.316728   0.000000
   26        3.392321   0.000000
 
 -0.2727596E+00 -0.5970360E+00  0.0000000E+00  0.6172840E-02
    1      -13.330921   1.000000
    2      -13.301571   1.000000
    3      -13.202577   1.000000
    4      -13.199295   1.000000
    5       -6.577451   1.000000
    6       -6.569794   1.000000
    7       -6.201068   1.000000
    8       -6.176209   1.000000
    9       -5.145252   1.000000
   10       -5.126170   1.000000
   11       -4.714590   1.000000
   12       -4.697954   1.000000
   13       -4.401610   1.000000
   14       -4.363673   1.000000
   15       -3.472533   1.000000
   16       -3.462599   1.000000
   17       -1.540207   1.000000
   18       -1.406930   1.000000
   19        0.529399   0.000000
   20        0.541807   0.000000
   21        1.561262   0.000000
   22        1.583771   0.000000
   23        1.849358   0.000000
   24        1.985292   0.000000
   25        3.303504   0.000000
   26        3.377418   0.000000
 
 -0.2727596E+00 -0.5839214E+00  0.0000000E+00  0.6172840E-02
    1      -13.349281   1.000000
    2      -13.320537   1.000000
    3      -13.212815   1.000000
    4      -13.209573   1.000000
    5       -6.547548   1.000000
    6       -6.539678   1.000000
    7       -6.233914   1.000000
    8       -6.211717   1.000000
    9       -5.088203   1.000000
   10       -5.069131   1.000000
   11       -4.700218   1.000000
   12       -4.680560   1.000000
   13       -4.428307   1.000000
   14       -4.392170   1.000000
   15       -3.430568   1.000000
   16       -3.423347   1.000000
   17       -1.576715   1.000000
   18       -1.446512   1.000000
   19        0.561467   0.000000
   20        0.576138   0.000000
   21        1.567281   0.000000
   22        1.585995   0.000000
   23        1.804652   0.000000
   24        1.936413   0.000000
   25        3.285473   0.000000
   26        3.357005   0.000000
