       N       E                     dE             d eps       ncg     rms          rms(c)
DAV:   1     0.115520334414E+03    0.11552E+03   -0.65825E+03  8424   0.934E+02
DAV:   2    -0.139404737705E+02   -0.12946E+03   -0.12740E+03 12654   0.194E+02
DAV:   3    -0.245147489581E+02   -0.10574E+02   -0.10490E+02 10508   0.674E+01
DAV:   4    -0.247263076556E+02   -0.21156E+00   -0.21057E+00 10632   0.114E+01
DAV:   5    -0.247317157297E+02   -0.54081E-02   -0.54018E-02 10202   0.183E+00
DAV:   6    -0.247319175757E+02   -0.20185E-03   -0.20183E-03 10520   0.358E-01
DAV:   7    -0.247319264495E+02   -0.88738E-05   -0.88738E-05 10234   0.722E-02
DAV:   8    -0.247319268902E+02   -0.44066E-06   -0.44067E-06 10066   0.158E-02
   1 F= -.24731927E+02 E0= -.24731927E+02  d E =-.158310E-16  mag=     0.0000     0.0000    -0.0000
