 vasp.5.4.4.18Apr17-6-g9f103f2a35 (build Sep 13 2026 16:50:19) complex          
  
 executed on             MacIFC19 date 2026.09.21  23:07:47
 serial version


--------------------------------------------------------------------------------------------------------


 INCAR:
 POTCAR:    PAW_PBE Mo 08Apr2002                  
 POTCAR:    PAW_PBE S 06Sep2000                   
 POTCAR:    PAW_PBE Mo 08Apr2002                  
   VRHFIN =Mo: 4p5s4d                                                           
   LEXCH  = PE                                                                  
   EATOM  =   217.5176 eV,   15.9871 Ry                                         
                                                                                
   TITEL  = PAW_PBE Mo 08Apr2002                                                
   LULTRA =        F    use ultrasoft PP ?                                      
   IUNSCR =        1    unscreen: 0-lin 1-nonlin 2-no                           
   RPACOR =    2.200    partial core radius                                     
   POMASS =   95.940; ZVAL   =    6.000    mass and valenz                      
   RCORE  =    2.750    outmost cutoff radius                                   
   RWIGS  =    2.750; RWIGS  =    1.455    wigner-seitz radius (au A)           
   ENMAX  =  224.584; ENMIN  =  168.438 eV                                      
   RCLOC  =    2.111    cutoff for local pot                                    
   LCOR   =        T    correct aug charges                                     
   LPAW   =        T    paw PP                                                  
   EAUG   =  345.278                                                            
   DEXC   =    0.000                                                            
   RMAX   =    2.821    core radius for proj-oper                               
   RAUG   =    1.300    factor for augmentation sphere                          
   RDEP   =    2.815    radius for radial grids                                 
   RDEPT  =    2.211    core radius for aug-charge                              
                                                                                
   Atomic configuration                                                         
   12 entries                                                                   
     n  l   j            E        occ.                                          
     1  0  0.50    -19819.0341   2.0000                                         
     2  0  0.50     -2799.0127   2.0000                                         
     2  1  1.50     -2502.0276   6.0000                                         
     3  0  0.50      -476.4448   2.0000                                         
     3  1  1.50      -379.1496   6.0000                                         
     3  2  2.50      -220.9367  10.0000                                         
     4  0  0.50       -64.3378   2.0000                                         
     4  1  1.50       -38.4773   6.0000                                         
     4  2  2.50        -3.7535   5.0000                                         
     5  0  0.50        -4.0862   1.0000                                         
     5  1  0.50        -2.7701   0.0000                                         
     4  3  2.50        -1.3606   0.0000                                         
   Description                                                                  
     l       E           TYP  RCUT    TYP  RCUT                                 
     2     -3.7534765     23  2.500                                             
     2     -5.1140591     23  2.500                                             
     0     -4.0861560     23  2.600                                             
     0     13.6058260     23  2.600                                             
     1      5.4423304     23  2.750                                             
     1     27.2116520     23  2.750                                             
  local pseudopotential read in
  partial core-charges read in
  partial kinetic energy density read in
  atomic valenz-charges read in
  non local Contribution for L=           2  read in
    real space projection operators read in
  non local Contribution for L=           2  read in
    real space projection operators read in
  non local Contribution for L=           0  read in
    real space projection operators read in
  non local Contribution for L=           0  read in
    real space projection operators read in
  non local Contribution for L=           1  read in
    real space projection operators read in
  non local Contribution for L=           1  read in
    real space projection operators read in
    PAW grid and wavefunctions read in
 
   number of l-projection  operators is LMAX  =           6
   number of lm-projection operators is LMMAX =          18
 
 POTCAR:    PAW_PBE S 06Sep2000                   
   VRHFIN =S : s2p4                                                             
   LEXCH  = PE                                                                  
   EATOM  =   276.8230 eV,   20.3459 Ry                                         
                                                                                
   TITEL  = PAW_PBE S 06Sep2000                                                 
   LULTRA =        F    use ultrasoft PP ?                                      
   IUNSCR =        1    unscreen: 0-lin 1-nonlin 2-no                           
   RPACOR =    1.500    partial core radius                                     
   POMASS =   32.066; ZVAL   =    6.000    mass and valenz                      
   RCORE  =    1.900    outmost cutoff radius                                   
   RWIGS  =    2.200; RWIGS  =    1.164    wigner-seitz radius (au A)           
   ENMAX  =  258.689; ENMIN  =  194.016 eV                                      
   ICORE  =        2    local potential                                         
   LCOR   =        T    correct aug charges                                     
   LPAW   =        T    paw PP                                                  
   EAUG   =  335.092                                                            
   DEXC   =    0.000                                                            
   RMAX   =    1.942    core radius for proj-oper                               
   RAUG   =    1.300    factor for augmentation sphere                          
   RDEP   =    1.954    radius for radial grids                                 
   RDEPT  =    1.744    core radius for aug-charge                              
                                                                                
   Atomic configuration                                                         
    6 entries                                                                   
     n  l   j            E        occ.                                          
     1  0  0.50     -2405.8406   2.0000                                         
     2  0  0.50      -211.7007   2.0000                                         
     2  1  1.50      -156.4958   6.0000                                         
     3  0  0.50       -17.2562   2.0000                                         
     3  1  0.50        -7.0085   4.0000                                         
     3  2  1.50        -6.8029   0.0000                                         
   Description                                                                  
     l       E           TYP  RCUT    TYP  RCUT                                 
     0    -17.2561641     23  1.900                                             
     0    -15.8743224     23  1.900                                             
     1     -7.0085400     23  1.900                                             
     1     -2.7779785     23  1.900                                             
     2     -6.8029130     23  1.900                                             
  local pseudopotential read in
  partial core-charges read in
  partial kinetic energy density read in
  atomic valenz-charges read in
  non local Contribution for L=           0  read in
    real space projection operators read in
  non local Contribution for L=           0  read in
    real space projection operators read in
  non local Contribution for L=           1  read in
    real space projection operators read in
  non local Contribution for L=           1  read in
    real space projection operators read in
    PAW grid and wavefunctions read in
 
   number of l-projection  operators is LMAX  =           4
   number of lm-projection operators is LMMAX =           8
 
  PAW_PBE Mo 08Apr2002                  :
 energy of atom  1       EATOM= -217.5176
 kinetic energy error for atom=    0.0025 (will be added to EATOM!!)
  PAW_PBE S 06Sep2000                   :
 energy of atom  2       EATOM= -276.8230
 kinetic energy error for atom=    0.0046 (will be added to EATOM!!)
 
 
 POSCAR: 1H-MoS2                                 
  positions in direct lattice
  No initial velocities read in
 exchange correlation table for  LEXCH =        8
   RHO(1)=    0.500       N(1)  =     2000
   RHO(2)=  100.500       N(2)  =     4000
 


--------------------------------------------------------------------------------------------------------


 ion  position               nearest neighbor table
   1  0.000  0.000  0.500-   2 2.43   3 2.43   2 2.43   3 2.43   2 2.43   3 2.43
   2  0.333  0.333  0.606-   1 2.43   1 2.43   1 2.43
   3  0.333  0.333  0.394-   1 2.43   1 2.43   1 2.43
 

IMPORTANT INFORMATION: All symmetrisations will be switched off!
NOSYMM: (Re-)initialisation of all symmetry stuff for point group C_1.

 
 
 KPOINTS: MoS2 K and Kprime Cartesian valley patch
  k-points in reciprocal lattice
Space group operators:
 irot       det(A)        alpha          n_x          n_y          n_z        tau_x        tau_y        tau_z
    1     1.000000     0.000000     1.000000     0.000000     0.000000     0.000000     0.000000     0.000000


--------------------------------------------------------------------------------------------------------




 Dimension of arrays:
   k-points           NKPTS =    162   k-points in BZ     NKDIM =    162   number of bands    NBANDS=     26
   number of dos      NEDOS =    301   number of ions     NIONS =      3
   non local maximal  LDIM  =      6   non local SUM 2l+1 LMDIM =     18
   total plane-waves  NPLWV =  20480
   max r-space proj   IRMAX =      1   max aug-charges    IRDMAX=  10261
   dimension x,y,z NGX =    16 NGY =   16 NGZ =   80
   dimension x,y,z NGXF=    32 NGYF=   32 NGZF=  160
   support grid    NGXF=    32 NGYF=   32 NGZF=  160
   ions per type =               1   2
   NGX,Y,Z   is equivalent  to a cutoff of   8.39,  8.39,  8.87 a.u.
   NGXF,Y,Z  is equivalent  to a cutoff of  16.77, 16.77, 17.73 a.u.

 SYSTEM =  1H-MoS2 public-CHGCAR SOC NSCF          
 POSCAR =  1H-MoS2                                 

 Startparameter for this run:
   NWRITE =      2    write-flag & timer
   PREC   = normal    normal or accurate (medium, high low for compatibility)
   ISTART =      0    job   : 0-new  1-cont  2-samecut
   ICHARG =     11    charge: 1-file 2-atom 10-const
   ISPIN  =      1    spin polarized calculation?
   LNONCOLLINEAR =      T non collinear calculations
   LSORBIT =      T    spin-orbit coupling
   INIWAV =      1    electr: 0-lowe 1-rand  2-diag
   LASPH  =      F    aspherical Exc in radial PAW
   METAGGA=      F    non-selfconsistent MetaGGA calc.

 Electronic Relaxation 1
   ENCUT  =  400.0 eV  29.40 Ry    5.42 a.u.   5.17  5.17 24.46*2*pi/ulx,y,z
   ENINI  =  400.0     initial cutoff
   ENAUG  =  345.3 eV  augmentation charge cutoff
   NELM   =    200;   NELMIN=  2; NELMDL= -5     # of ELM steps 
   EDIFF  = 0.1E-05   stopping-criterion for ELM
   LREAL  =      F    real-space projection
   NLSPLINE    = F    spline interpolate recip. space projectors
   LCOMPAT=      F    compatible to vasp.4.4
   GGA_COMPAT  = F    GGA compatible to vasp.4.4-vasp.4.6
   LMAXPAW     = -100 max onsite density
   LMAXMIX     =    2 max onsite mixed and CHGCAR
   VOSKOWN=      0    Vosko Wilk Nusair interpolation
   ROPT   =    0.00000   0.00000
 Ionic relaxation
   EDIFFG = 0.1E-04   stopping-criterion for IOM
   NSW    =      0    number of steps for IOM
   NBLOCK =      1;   KBLOCK =      1    inner block; outer block 
   IBRION =     -1    ionic relax: 0-MD 1-quasi-New 2-CG
   NFREE  =      0    steps in history (QN), initial steepest desc. (CG)
   ISIF   =      2    stress and relaxation
   IWAVPR =      0    prediction:  0-non 1-charg 2-wave 3-comb
   ISYM   =     -1    0-nonsym 1-usesym 2-fastsym
   LCORR  =      T    Harris-Foulkes like correction to forces

   POTIM  = 0.5000    time-step for ionic-motion
   TEIN   =    0.0    initial temperature
   TEBEG  =    0.0;   TEEND  =   0.0 temperature during run
   SMASS  =  -3.00    Nose mass-parameter (am)
   estimated Nose-frequenzy (Omega)   =  0.10E-29 period in steps =****** mass=  -0.230E-27a.u.
   SCALEE = 1.0000    scale energy and forces
   NPACO  =    256;   APACO  = 16.0  distance and # of slots for P.C.
   PSTRESS=    0.0 pullay stress

  Mass of Ions in am
   POMASS =  95.94 32.07
  Ionic Valenz
   ZVAL   =   6.00  6.00
  Atomic Wigner-Seitz radii
   RWIGS  =  -1.00 -1.00
  virtual crystal weights 
   VCA    =   1.00  1.00
   NELECT =      18.0000    total number of electrons
   NUPDOWN=      -1.0000    fix difference up-down

 DOS related values:
   EMIN   =  10.00;   EMAX   =-10.00  energy-range for DOS
   EFERMI =   0.00
   ISMEAR =     0;   SIGMA  =   0.02  broadening in eV -4-tet -1-fermi 0-gaus

 Electronic relaxation 2 (details)
   IALGO  =     38    algorithm
   LDIAG  =      T    sub-space diagonalisation (order eigenvalues)
   LSUBROT=      F    optimize rotation matrix (better conditioning)
   TURBO    =      0    0=normal 1=particle mesh
   IRESTART =      0    0=no restart 2=restart with 2 vectors
   NREBOOT  =      0    no. of reboots
   NMIN     =      0    reboot dimension
   EREF     =   0.00    reference energy to select bands
   IMIX   =      4    mixing-type and parameters
     AMIX     =   0.40;   BMIX     =  1.00
     AMIX_MAG =   1.60;   BMIX_MAG =  1.00
     AMIN     =   0.10
     WC   =   100.;   INIMIX=   1;  MIXPRE=   1;  MAXMIX= -45

 Intra band minimization:
   WEIMIN = 0.0000     energy-eigenvalue tresh-hold
   EBREAK =  0.96E-08  absolut break condition
   DEPER  =   0.30     relativ break condition  

   TIME   =   0.40     timestep for ELM

  volume/ion in A,a.u.               =      43.56       293.94
  Fermi-wavevector in a.u.,A,eV,Ry     =   0.845479  1.597724  9.725923  0.714835
  Thomas-Fermi vector in A             =   1.960674
 
 Write flags
   LWAVE        =      T    write WAVECAR
   LDOWNSAMPLE  =      F    k-point downsampling of WAVECAR
   LCHARG       =      F    write CHGCAR
   LVTOT        =      F    write LOCPOT, total local potential
   LVHAR        =      F    write LOCPOT, Hartree potential only
   LELF         =      F    write electronic localiz. function (ELF)
   LORBIT       =      0    0 simple, 1 ext, 2 COOP (PROOUT), +10 PAW based schemes


 Dipole corrections
   LMONO  =      F    monopole corrections only (constant potential shift)
   LDIPOL =      F    correct potential (dipole corrections)
   IDIPOL =      0    1-x, 2-y, 3-z, 4-all directions 
   EPSILON=  1.0000000 bulk dielectric constant

 Exchange correlation treatment:
   GGA     =    --    GGA type
   LEXCH   =     8    internal setting for exchange type
   VOSKOWN=      0    Vosko Wilk Nusair interpolation
   LHFCALC =     F    Hartree Fock is set to
   LHFONE  =     F    Hartree Fock one center treatment
   AEXX    =    0.0000 exact exchange contribution

 Linear response parameters
   LEPSILON=     F    determine dielectric tensor
   LRPA    =     F    only Hartree local field effects (RPA)
   LNABLA  =     F    use nabla operator in PAW spheres
   LVEL    =     F    velocity operator in full k-point grid
   LINTERFAST=   F  fast interpolation
   KINTER  =     0    interpolate to denser k-point grid
   CSHIFT  =0.1000    complex shift for real part using Kramers Kronig
   OMEGAMAX=  -1.0    maximum frequency
   DEG_THRESHOLD= 0.2000000E-02 threshold for treating states as degnerate
   RTIME   =   -0.100 relaxation time in fs
  (WPLASMAI=    0.000 imaginary part of plasma frequency in eV, 0.658/RTIME)
   DFIELD  = 0.0000000 0.0000000 0.0000000 field for delta impulse in time
 
 Orbital magnetization related:
   ORBITALMAG=     F  switch on orbital magnetization
   LCHIMAG   =     F  perturbation theory with respect to B field
   DQ        =  0.001000  dq finite difference perturbation B field
   LLRAUG    =     F  two centre corrections for induced B field



--------------------------------------------------------------------------------------------------------


 Static calculation
 charge density and potential remain constant during run
 non collinear spin polarized calculation
 Variant of blocked Davidson
 Davidson routine will perform the subspace rotation
 perform sub-space diagonalisation
    after iterative eigenvector-optimisation
 no mixing
 using additional bands           17
 reciprocal scheme for non local part
 use partial core corrections
 calculate Harris-corrections to forces 
   (improved forces if not selfconsistent)
 use gradient corrections 
 WARNING: stress and forces are not correct
  (second derivative of E(xc) not defined)
 use of overlap-Matrix (Vanderbilt PP)
 Gauss-broadening in eV      SIGMA  =   0.02


--------------------------------------------------------------------------------------------------------


  energy-cutoff  :      400.00
  volume of cell :      130.67
      direct lattice vectors                 reciprocal lattice vectors
     3.171634303  0.000000000  0.000000000     0.315294862 -0.182035573  0.000000000
     1.585817152  2.746715878  0.000000000     0.000000000  0.364071147  0.000000000
     0.000000000  0.000000000 15.000000000     0.000000000 -0.000000000  0.066666667

  length of vectors
     3.171634303  3.171634303 15.000000000     0.364071147  0.364071147  0.066666667


 
 k-points in units of 2pi/SCALE and weight: MoS2 K and Kprime Cartesian valley patch
   0.08599969  0.16293698  0.00000000       0.006
   0.08599969  0.16771163  0.00000000       0.006
   0.08599969  0.17248628  0.00000000       0.006
   0.08599969  0.17726093  0.00000000       0.006
   0.08599969  0.18203557  0.00000000       0.006
   0.08599969  0.18681022  0.00000000       0.006
   0.08599969  0.19158487  0.00000000       0.006
   0.08599969  0.19635952  0.00000000       0.006
   0.08599969  0.20113417  0.00000000       0.006
   0.09077434  0.16293698  0.00000000       0.006
   0.09077434  0.16771163  0.00000000       0.006
   0.09077434  0.17248628  0.00000000       0.006
   0.09077434  0.17726093  0.00000000       0.006
   0.09077434  0.18203557  0.00000000       0.006
   0.09077434  0.18681022  0.00000000       0.006
   0.09077434  0.19158487  0.00000000       0.006
   0.09077434  0.19635952  0.00000000       0.006
   0.09077434  0.20113417  0.00000000       0.006
   0.09554899  0.16293698  0.00000000       0.006
   0.09554899  0.16771163  0.00000000       0.006
   0.09554899  0.17248628  0.00000000       0.006
   0.09554899  0.17726093  0.00000000       0.006
   0.09554899  0.18203557  0.00000000       0.006
   0.09554899  0.18681022  0.00000000       0.006
   0.09554899  0.19158487  0.00000000       0.006
   0.09554899  0.19635952  0.00000000       0.006
   0.09554899  0.20113417  0.00000000       0.006
   0.10032364  0.16293698  0.00000000       0.006
   0.10032364  0.16771163  0.00000000       0.006
   0.10032364  0.17248628  0.00000000       0.006
   0.10032364  0.17726093  0.00000000       0.006
   0.10032364  0.18203557  0.00000000       0.006
   0.10032364  0.18681022  0.00000000       0.006
   0.10032364  0.19158487  0.00000000       0.006
   0.10032364  0.19635952  0.00000000       0.006
   0.10032364  0.20113417  0.00000000       0.006
   0.10509829  0.16293698  0.00000000       0.006
   0.10509829  0.16771163  0.00000000       0.006
   0.10509829  0.17248628  0.00000000       0.006
   0.10509829  0.17726093  0.00000000       0.006
   0.10509829  0.18203557  0.00000000       0.006
   0.10509829  0.18681022  0.00000000       0.006
   0.10509829  0.19158487  0.00000000       0.006
   0.10509829  0.19635952  0.00000000       0.006
   0.10509829  0.20113417  0.00000000       0.006
   0.10987294  0.16293698  0.00000000       0.006
   0.10987294  0.16771163  0.00000000       0.006
   0.10987294  0.17248628  0.00000000       0.006
   0.10987294  0.17726093  0.00000000       0.006
   0.10987294  0.18203557  0.00000000       0.006
   0.10987294  0.18681022  0.00000000       0.006
   0.10987294  0.19158487  0.00000000       0.006
   0.10987294  0.19635952  0.00000000       0.006
   0.10987294  0.20113417  0.00000000       0.006
   0.11464758  0.16293698  0.00000000       0.006
   0.11464758  0.16771163  0.00000000       0.006
   0.11464758  0.17248628  0.00000000       0.006
   0.11464758  0.17726093  0.00000000       0.006
   0.11464758  0.18203557  0.00000000       0.006
   0.11464758  0.18681022  0.00000000       0.006
   0.11464758  0.19158487  0.00000000       0.006
   0.11464758  0.19635952  0.00000000       0.006
   0.11464758  0.20113417  0.00000000       0.006
   0.11942223  0.16293698  0.00000000       0.006
   0.11942223  0.16771163  0.00000000       0.006
   0.11942223  0.17248628  0.00000000       0.006
   0.11942223  0.17726093  0.00000000       0.006
   0.11942223  0.18203557  0.00000000       0.006
   0.11942223  0.18681022  0.00000000       0.006
   0.11942223  0.19158487  0.00000000       0.006
   0.11942223  0.19635952  0.00000000       0.006
   0.11942223  0.20113417  0.00000000       0.006
   0.12419688  0.16293698  0.00000000       0.006
   0.12419688  0.16771163  0.00000000       0.006
   0.12419688  0.17248628  0.00000000       0.006
   0.12419688  0.17726093  0.00000000       0.006
   0.12419688  0.18203557  0.00000000       0.006
   0.12419688  0.18681022  0.00000000       0.006
   0.12419688  0.19158487  0.00000000       0.006
   0.12419688  0.19635952  0.00000000       0.006
   0.12419688  0.20113417  0.00000000       0.006
  -0.12419688 -0.20113417  0.00000000       0.006
  -0.12419688 -0.19635952  0.00000000       0.006
  -0.12419688 -0.19158487  0.00000000       0.006
  -0.12419688 -0.18681022  0.00000000       0.006
  -0.12419688 -0.18203557  0.00000000       0.006
  -0.12419688 -0.17726093  0.00000000       0.006
  -0.12419688 -0.17248628  0.00000000       0.006
  -0.12419688 -0.16771163  0.00000000       0.006
  -0.12419688 -0.16293698  0.00000000       0.006
  -0.11942223 -0.20113417  0.00000000       0.006
  -0.11942223 -0.19635952  0.00000000       0.006
  -0.11942223 -0.19158487  0.00000000       0.006
  -0.11942223 -0.18681022  0.00000000       0.006
  -0.11942223 -0.18203557  0.00000000       0.006
  -0.11942223 -0.17726093  0.00000000       0.006
  -0.11942223 -0.17248628  0.00000000       0.006
  -0.11942223 -0.16771163  0.00000000       0.006
  -0.11942223 -0.16293698  0.00000000       0.006
  -0.11464758 -0.20113417  0.00000000       0.006
  -0.11464758 -0.19635952  0.00000000       0.006
  -0.11464758 -0.19158487  0.00000000       0.006
  -0.11464758 -0.18681022  0.00000000       0.006
  -0.11464758 -0.18203557  0.00000000       0.006
  -0.11464758 -0.17726093  0.00000000       0.006
  -0.11464758 -0.17248628  0.00000000       0.006
  -0.11464758 -0.16771163  0.00000000       0.006
  -0.11464758 -0.16293698  0.00000000       0.006
  -0.10987294 -0.20113417  0.00000000       0.006
  -0.10987294 -0.19635952  0.00000000       0.006
  -0.10987294 -0.19158487  0.00000000       0.006
  -0.10987294 -0.18681022  0.00000000       0.006
  -0.10987294 -0.18203557  0.00000000       0.006
  -0.10987294 -0.17726093  0.00000000       0.006
  -0.10987294 -0.17248628  0.00000000       0.006
  -0.10987294 -0.16771163  0.00000000       0.006
  -0.10987294 -0.16293698  0.00000000       0.006
  -0.10509829 -0.20113417  0.00000000       0.006
  -0.10509829 -0.19635952  0.00000000       0.006
  -0.10509829 -0.19158487  0.00000000       0.006
  -0.10509829 -0.18681022  0.00000000       0.006
  -0.10509829 -0.18203557  0.00000000       0.006
  -0.10509829 -0.17726093  0.00000000       0.006
  -0.10509829 -0.17248628  0.00000000       0.006
  -0.10509829 -0.16771163  0.00000000       0.006
  -0.10509829 -0.16293698  0.00000000       0.006
  -0.10032364 -0.20113417  0.00000000       0.006
  -0.10032364 -0.19635952  0.00000000       0.006
  -0.10032364 -0.19158487  0.00000000       0.006
  -0.10032364 -0.18681022  0.00000000       0.006
  -0.10032364 -0.18203557  0.00000000       0.006
  -0.10032364 -0.17726093  0.00000000       0.006
  -0.10032364 -0.17248628  0.00000000       0.006
  -0.10032364 -0.16771163  0.00000000       0.006
  -0.10032364 -0.16293698  0.00000000       0.006
  -0.09554899 -0.20113417  0.00000000       0.006
  -0.09554899 -0.19635952  0.00000000       0.006
  -0.09554899 -0.19158487  0.00000000       0.006
  -0.09554899 -0.18681022  0.00000000       0.006
  -0.09554899 -0.18203557  0.00000000       0.006
  -0.09554899 -0.17726093  0.00000000       0.006
  -0.09554899 -0.17248628  0.00000000       0.006
  -0.09554899 -0.16771163  0.00000000       0.006
  -0.09554899 -0.16293698  0.00000000       0.006
  -0.09077434 -0.20113417  0.00000000       0.006
  -0.09077434 -0.19635952  0.00000000       0.006
  -0.09077434 -0.19158487  0.00000000       0.006
  -0.09077434 -0.18681022  0.00000000       0.006
  -0.09077434 -0.18203557  0.00000000       0.006
  -0.09077434 -0.17726093  0.00000000       0.006
  -0.09077434 -0.17248628  0.00000000       0.006
  -0.09077434 -0.16771163  0.00000000       0.006
  -0.09077434 -0.16293698  0.00000000       0.006
  -0.08599969 -0.20113417  0.00000000       0.006
  -0.08599969 -0.19635952  0.00000000       0.006
  -0.08599969 -0.19158487  0.00000000       0.006
  -0.08599969 -0.18681022  0.00000000       0.006
  -0.08599969 -0.18203557  0.00000000       0.006
  -0.08599969 -0.17726093  0.00000000       0.006
  -0.08599969 -0.17248628  0.00000000       0.006
  -0.08599969 -0.16771163  0.00000000       0.006
  -0.08599969 -0.16293698  0.00000000       0.006
 
 k-points in reciprocal lattice and weights: MoS2 K and Kprime Cartesian valley patch
   0.27275958  0.58392138  0.00000000       0.006
   0.27275958  0.59703598  0.00000000       0.006
   0.27275958  0.61015059  0.00000000       0.006
   0.27275958  0.62326519  0.00000000       0.006
   0.27275958  0.63637979  0.00000000       0.006
   0.27275958  0.64949439  0.00000000       0.006
   0.27275958  0.66260899  0.00000000       0.006
   0.27275958  0.67572360  0.00000000       0.006
   0.27275958  0.68883820  0.00000000       0.006
   0.28790302  0.59149310  0.00000000       0.006
   0.28790302  0.60460770  0.00000000       0.006
   0.28790302  0.61772230  0.00000000       0.006
   0.28790302  0.63083691  0.00000000       0.006
   0.28790302  0.64395151  0.00000000       0.006
   0.28790302  0.65706611  0.00000000       0.006
   0.28790302  0.67018071  0.00000000       0.006
   0.28790302  0.68329532  0.00000000       0.006
   0.28790302  0.69640992  0.00000000       0.006
   0.30304646  0.59906482  0.00000000       0.006
   0.30304646  0.61217942  0.00000000       0.006
   0.30304646  0.62529402  0.00000000       0.006
   0.30304646  0.63840863  0.00000000       0.006
   0.30304646  0.65152323  0.00000000       0.006
   0.30304646  0.66463783  0.00000000       0.006
   0.30304646  0.67775243  0.00000000       0.006
   0.30304646  0.69086704  0.00000000       0.006
   0.30304646  0.70398164  0.00000000       0.006
   0.31818990  0.60663654  0.00000000       0.006
   0.31818990  0.61975114  0.00000000       0.006
   0.31818990  0.63286574  0.00000000       0.006
   0.31818990  0.64598035  0.00000000       0.006
   0.31818990  0.65909495  0.00000000       0.006
   0.31818990  0.67220955  0.00000000       0.006
   0.31818990  0.68532415  0.00000000       0.006
   0.31818990  0.69843875  0.00000000       0.006
   0.31818990  0.71155336  0.00000000       0.006
   0.33333333  0.61420826  0.00000000       0.006
   0.33333333  0.62732286  0.00000000       0.006
   0.33333333  0.64043746  0.00000000       0.006
   0.33333333  0.65355206  0.00000000       0.006
   0.33333333  0.66666667  0.00000000       0.006
   0.33333333  0.67978127  0.00000000       0.006
   0.33333333  0.69289587  0.00000000       0.006
   0.33333333  0.70601047  0.00000000       0.006
   0.33333333  0.71912508  0.00000000       0.006
   0.34847677  0.62177998  0.00000000       0.006
   0.34847677  0.63489458  0.00000000       0.006
   0.34847677  0.64800918  0.00000000       0.006
   0.34847677  0.66112378  0.00000000       0.006
   0.34847677  0.67423839  0.00000000       0.006
   0.34847677  0.68735299  0.00000000       0.006
   0.34847677  0.70046759  0.00000000       0.006
   0.34847677  0.71358219  0.00000000       0.006
   0.34847677  0.72669679  0.00000000       0.006
   0.36362021  0.62935170  0.00000000       0.006
   0.36362021  0.64246630  0.00000000       0.006
   0.36362021  0.65558090  0.00000000       0.006
   0.36362021  0.66869550  0.00000000       0.006
   0.36362021  0.68181010  0.00000000       0.006
   0.36362021  0.69492471  0.00000000       0.006
   0.36362021  0.70803931  0.00000000       0.006
   0.36362021  0.72115391  0.00000000       0.006
   0.36362021  0.73426851  0.00000000       0.006
   0.37876365  0.63692342  0.00000000       0.006
   0.37876365  0.65003802  0.00000000       0.006
   0.37876365  0.66315262  0.00000000       0.006
   0.37876365  0.67626722  0.00000000       0.006
   0.37876365  0.68938182  0.00000000       0.006
   0.37876365  0.70249643  0.00000000       0.006
   0.37876365  0.71561103  0.00000000       0.006
   0.37876365  0.72872563  0.00000000       0.006
   0.37876365  0.74184023  0.00000000       0.006
   0.39390709  0.64449513  0.00000000       0.006
   0.39390709  0.65760974  0.00000000       0.006
   0.39390709  0.67072434  0.00000000       0.006
   0.39390709  0.68383894  0.00000000       0.006
   0.39390709  0.69695354  0.00000000       0.006
   0.39390709  0.71006815  0.00000000       0.006
   0.39390709  0.72318275  0.00000000       0.006
   0.39390709  0.73629735  0.00000000       0.006
   0.39390709  0.74941195  0.00000000       0.006
  -0.39390709 -0.74941195  0.00000000       0.006
  -0.39390709 -0.73629735  0.00000000       0.006
  -0.39390709 -0.72318275  0.00000000       0.006
  -0.39390709 -0.71006815  0.00000000       0.006
  -0.39390709 -0.69695354  0.00000000       0.006
  -0.39390709 -0.68383894  0.00000000       0.006
  -0.39390709 -0.67072434  0.00000000       0.006
  -0.39390709 -0.65760974  0.00000000       0.006
  -0.39390709 -0.64449513  0.00000000       0.006
  -0.37876365 -0.74184023  0.00000000       0.006
  -0.37876365 -0.72872563  0.00000000       0.006
  -0.37876365 -0.71561103  0.00000000       0.006
  -0.37876365 -0.70249643  0.00000000       0.006
  -0.37876365 -0.68938182  0.00000000       0.006
  -0.37876365 -0.67626722  0.00000000       0.006
  -0.37876365 -0.66315262  0.00000000       0.006
  -0.37876365 -0.65003802  0.00000000       0.006
  -0.37876365 -0.63692342  0.00000000       0.006
  -0.36362021 -0.73426851  0.00000000       0.006
  -0.36362021 -0.72115391  0.00000000       0.006
  -0.36362021 -0.70803931  0.00000000       0.006
  -0.36362021 -0.69492471  0.00000000       0.006
  -0.36362021 -0.68181010  0.00000000       0.006
  -0.36362021 -0.66869550  0.00000000       0.006
  -0.36362021 -0.65558090  0.00000000       0.006
  -0.36362021 -0.64246630  0.00000000       0.006
  -0.36362021 -0.62935170  0.00000000       0.006
  -0.34847677 -0.72669679  0.00000000       0.006
  -0.34847677 -0.71358219  0.00000000       0.006
  -0.34847677 -0.70046759  0.00000000       0.006
  -0.34847677 -0.68735299  0.00000000       0.006
  -0.34847677 -0.67423839  0.00000000       0.006
  -0.34847677 -0.66112378  0.00000000       0.006
  -0.34847677 -0.64800918  0.00000000       0.006
  -0.34847677 -0.63489458  0.00000000       0.006
  -0.34847677 -0.62177998  0.00000000       0.006
  -0.33333333 -0.71912508  0.00000000       0.006
  -0.33333333 -0.70601047  0.00000000       0.006
  -0.33333333 -0.69289587  0.00000000       0.006
  -0.33333333 -0.67978127  0.00000000       0.006
  -0.33333333 -0.66666667  0.00000000       0.006
  -0.33333333 -0.65355206  0.00000000       0.006
  -0.33333333 -0.64043746  0.00000000       0.006
  -0.33333333 -0.62732286  0.00000000       0.006
  -0.33333333 -0.61420826  0.00000000       0.006
  -0.31818990 -0.71155336  0.00000000       0.006
  -0.31818990 -0.69843875  0.00000000       0.006
  -0.31818990 -0.68532415  0.00000000       0.006
  -0.31818990 -0.67220955  0.00000000       0.006
  -0.31818990 -0.65909495  0.00000000       0.006
  -0.31818990 -0.64598035  0.00000000       0.006
  -0.31818990 -0.63286574  0.00000000       0.006
  -0.31818990 -0.61975114  0.00000000       0.006
  -0.31818990 -0.60663654  0.00000000       0.006
  -0.30304646 -0.70398164  0.00000000       0.006
  -0.30304646 -0.69086704  0.00000000       0.006
  -0.30304646 -0.67775243  0.00000000       0.006
  -0.30304646 -0.66463783  0.00000000       0.006
  -0.30304646 -0.65152323  0.00000000       0.006
  -0.30304646 -0.63840863  0.00000000       0.006
  -0.30304646 -0.62529402  0.00000000       0.006
  -0.30304646 -0.61217942  0.00000000       0.006
  -0.30304646 -0.59906482  0.00000000       0.006
  -0.28790302 -0.69640992  0.00000000       0.006
  -0.28790302 -0.68329532  0.00000000       0.006
  -0.28790302 -0.67018071  0.00000000       0.006
  -0.28790302 -0.65706611  0.00000000       0.006
  -0.28790302 -0.64395151  0.00000000       0.006
  -0.28790302 -0.63083691  0.00000000       0.006
  -0.28790302 -0.61772230  0.00000000       0.006
  -0.28790302 -0.60460770  0.00000000       0.006
  -0.28790302 -0.59149310  0.00000000       0.006
  -0.27275958 -0.68883820  0.00000000       0.006
  -0.27275958 -0.67572360  0.00000000       0.006
  -0.27275958 -0.66260899  0.00000000       0.006
  -0.27275958 -0.64949439  0.00000000       0.006
  -0.27275958 -0.63637979  0.00000000       0.006
  -0.27275958 -0.62326519  0.00000000       0.006
  -0.27275958 -0.61015059  0.00000000       0.006
  -0.27275958 -0.59703598  0.00000000       0.006
  -0.27275958 -0.58392138  0.00000000       0.006
 
 position of ions in fractional coordinates (direct lattice) 
   0.00000000  0.00000000  0.50000000
   0.33333333  0.33333333  0.60645737
   0.33333333  0.33333333  0.39354263
 
 position of ions in cartesian coordinates  (Angst):
   0.00000000  0.00000000  7.50000000
   1.58581715  0.91557196  9.09686056
   1.58581715  0.91557196  5.90313944
 
 Euler angles ALPHA=     0.0000000  BETA=     0.0000000

 transformation matrix from SAXIS to cartesian coordinates
 ---------------------------------------------------------
     1.0000000 m_x     0.0000000 m_y     0.0000000 m_z
     0.0000000 m_x     1.0000000 m_y     0.0000000 m_z
     0.0000000 m_x     0.0000000 m_y     1.0000000 m_z

 transformation matrix from cartesian coordinates to SAXIS
 ---------------------------------------------------------
     1.0000000 m_x     0.0000000 m_y     0.0000000 m_z
     0.0000000 m_x     1.0000000 m_y     0.0000000 m_z
     0.0000000 m_x     0.0000000 m_y     1.0000000 m_z




--------------------------------------------------------------------------------------------------------


 k-point  1 :   0.2728 0.5839 0.0000  plane waves:    4734
 k-point  2 :   0.2728 0.5970 0.0000  plane waves:    4730
 k-point  3 :   0.2728 0.6102 0.0000  plane waves:    4724
 k-point  4 :   0.2728 0.6233 0.0000  plane waves:    4742
 k-point  5 :   0.2728 0.6364 0.0000  plane waves:    4742
 k-point  6 :   0.2728 0.6495 0.0000  plane waves:    4742
 k-point  7 :   0.2728 0.6626 0.0000  plane waves:    4724
 k-point  8 :   0.2728 0.6757 0.0000  plane waves:    4730
 k-point  9 :   0.2728 0.6888 0.0000  plane waves:    4734
 k-point 10 :   0.2879 0.5915 0.0000  plane waves:    4730
 k-point 11 :   0.2879 0.6046 0.0000  plane waves:    4738
 k-point 12 :   0.2879 0.6177 0.0000  plane waves:    4736
 k-point 13 :   0.2879 0.6308 0.0000  plane waves:    4728
 k-point 14 :   0.2879 0.6440 0.0000  plane waves:    4730
 k-point 15 :   0.2879 0.6571 0.0000  plane waves:    4728
 k-point 16 :   0.2879 0.6702 0.0000  plane waves:    4736
 k-point 17 :   0.2879 0.6833 0.0000  plane waves:    4738
 k-point 18 :   0.2879 0.6964 0.0000  plane waves:    4730
 k-point 19 :   0.3030 0.5991 0.0000  plane waves:    4730
 k-point 20 :   0.3030 0.6122 0.0000  plane waves:    4722
 k-point 21 :   0.3030 0.6253 0.0000  plane waves:    4720
 k-point 22 :   0.3030 0.6384 0.0000  plane waves:    4722
 k-point 23 :   0.3030 0.6515 0.0000  plane waves:    4734
 k-point 24 :   0.3030 0.6646 0.0000  plane waves:    4722
 k-point 25 :   0.3030 0.6778 0.0000  plane waves:    4720
 k-point 26 :   0.3030 0.6909 0.0000  plane waves:    4722
 k-point 27 :   0.3030 0.7040 0.0000  plane waves:    4730
 k-point 28 :   0.3182 0.6066 0.0000  plane waves:    4742
 k-point 29 :   0.3182 0.6198 0.0000  plane waves:    4714
 k-point 30 :   0.3182 0.6329 0.0000  plane waves:    4710
 k-point 31 :   0.3182 0.6460 0.0000  plane waves:    4714
 k-point 32 :   0.3182 0.6591 0.0000  plane waves:    4726
 k-point 33 :   0.3182 0.6722 0.0000  plane waves:    4714
 k-point 34 :   0.3182 0.6853 0.0000  plane waves:    4710
 k-point 35 :   0.3182 0.6984 0.0000  plane waves:    4714
 k-point 36 :   0.3182 0.7116 0.0000  plane waves:    4742
 k-point 37 :   0.3333 0.6142 0.0000  plane waves:    4732
 k-point 38 :   0.3333 0.6273 0.0000  plane waves:    4728
 k-point 39 :   0.3333 0.6404 0.0000  plane waves:    4726
 k-point 40 :   0.3333 0.6536 0.0000  plane waves:    4718
 k-point 41 :   0.3333 0.6667 0.0000  plane waves:    4734
 k-point 42 :   0.3333 0.6798 0.0000  plane waves:    4718
 k-point 43 :   0.3333 0.6929 0.0000  plane waves:    4726
 k-point 44 :   0.3333 0.7060 0.0000  plane waves:    4728
 k-point 45 :   0.3333 0.7191 0.0000  plane waves:    4732
 k-point 46 :   0.3485 0.6218 0.0000  plane waves:    4742
 k-point 47 :   0.3485 0.6349 0.0000  plane waves:    4736
 k-point 48 :   0.3485 0.6480 0.0000  plane waves:    4730
 k-point 49 :   0.3485 0.6611 0.0000  plane waves:    4726
 k-point 50 :   0.3485 0.6742 0.0000  plane waves:    4714
 k-point 51 :   0.3485 0.6874 0.0000  plane waves:    4726
 k-point 52 :   0.3485 0.7005 0.0000  plane waves:    4730
 k-point 53 :   0.3485 0.7136 0.0000  plane waves:    4736
 k-point 54 :   0.3485 0.7267 0.0000  plane waves:    4742
 k-point 55 :   0.3636 0.6294 0.0000  plane waves:    4746
 k-point 56 :   0.3636 0.6425 0.0000  plane waves:    4742
 k-point 57 :   0.3636 0.6556 0.0000  plane waves:    4728
 k-point 58 :   0.3636 0.6687 0.0000  plane waves:    4718
 k-point 59 :   0.3636 0.6818 0.0000  plane waves:    4706
 k-point 60 :   0.3636 0.6949 0.0000  plane waves:    4718
 k-point 61 :   0.3636 0.7080 0.0000  plane waves:    4728
 k-point 62 :   0.3636 0.7212 0.0000  plane waves:    4742
 k-point 63 :   0.3636 0.7343 0.0000  plane waves:    4746
 k-point 64 :   0.3788 0.6369 0.0000  plane waves:    4738
 k-point 65 :   0.3788 0.6500 0.0000  plane waves:    4742
 k-point 66 :   0.3788 0.6632 0.0000  plane waves:    4732
 k-point 67 :   0.3788 0.6763 0.0000  plane waves:    4724
 k-point 68 :   0.3788 0.6894 0.0000  plane waves:    4718
 k-point 69 :   0.3788 0.7025 0.0000  plane waves:    4724
 k-point 70 :   0.3788 0.7156 0.0000  plane waves:    4732
 k-point 71 :   0.3788 0.7287 0.0000  plane waves:    4742
 k-point 72 :   0.3788 0.7418 0.0000  plane waves:    4738
 k-point 73 :   0.3939 0.6445 0.0000  plane waves:    4746
 k-point 74 :   0.3939 0.6576 0.0000  plane waves:    4738
 k-point 75 :   0.3939 0.6707 0.0000  plane waves:    4730
 k-point 76 :   0.3939 0.6838 0.0000  plane waves:    4730
 k-point 77 :   0.3939 0.6970 0.0000  plane waves:    4730
 k-point 78 :   0.3939 0.7101 0.0000  plane waves:    4730
 k-point 79 :   0.3939 0.7232 0.0000  plane waves:    4730
 k-point 80 :   0.3939 0.7363 0.0000  plane waves:    4738
 k-point 81 :   0.3939 0.7494 0.0000  plane waves:    4746
 k-point 82 :  -0.3939-0.7494 0.0000  plane waves:    4746
 k-point 83 :  -0.3939-0.7363 0.0000  plane waves:    4738
 k-point 84 :  -0.3939-0.7232 0.0000  plane waves:    4730
 k-point 85 :  -0.3939-0.7101 0.0000  plane waves:    4730
 k-point 86 :  -0.3939-0.6970 0.0000  plane waves:    4730
 k-point 87 :  -0.3939-0.6838 0.0000  plane waves:    4730
 k-point 88 :  -0.3939-0.6707 0.0000  plane waves:    4730
 k-point 89 :  -0.3939-0.6576 0.0000  plane waves:    4738
 k-point 90 :  -0.3939-0.6445 0.0000  plane waves:    4746
 k-point 91 :  -0.3788-0.7418 0.0000  plane waves:    4738
 k-point 92 :  -0.3788-0.7287 0.0000  plane waves:    4742
 k-point 93 :  -0.3788-0.7156 0.0000  plane waves:    4732
 k-point 94 :  -0.3788-0.7025 0.0000  plane waves:    4724
 k-point 95 :  -0.3788-0.6894 0.0000  plane waves:    4718
 k-point 96 :  -0.3788-0.6763 0.0000  plane waves:    4724
 k-point 97 :  -0.3788-0.6632 0.0000  plane waves:    4732
 k-point 98 :  -0.3788-0.6500 0.0000  plane waves:    4742
 k-point 99 :  -0.3788-0.6369 0.0000  plane waves:    4738
 k-point ** :  -0.3636-0.7343 0.0000  plane waves:    4746
 k-point ** :  -0.3636-0.7212 0.0000  plane waves:    4742
 k-point ** :  -0.3636-0.7080 0.0000  plane waves:    4728
 k-point ** :  -0.3636-0.6949 0.0000  plane waves:    4718
 k-point ** :  -0.3636-0.6818 0.0000  plane waves:    4706
 k-point ** :  -0.3636-0.6687 0.0000  plane waves:    4718
 k-point ** :  -0.3636-0.6556 0.0000  plane waves:    4728
 k-point ** :  -0.3636-0.6425 0.0000  plane waves:    4742
 k-point ** :  -0.3636-0.6294 0.0000  plane waves:    4746
 k-point ** :  -0.3485-0.7267 0.0000  plane waves:    4742
 k-point ** :  -0.3485-0.7136 0.0000  plane waves:    4736
 k-point ** :  -0.3485-0.7005 0.0000  plane waves:    4730
 k-point ** :  -0.3485-0.6874 0.0000  plane waves:    4726
 k-point ** :  -0.3485-0.6742 0.0000  plane waves:    4714
 k-point ** :  -0.3485-0.6611 0.0000  plane waves:    4726
 k-point ** :  -0.3485-0.6480 0.0000  plane waves:    4730
 k-point ** :  -0.3485-0.6349 0.0000  plane waves:    4736
 k-point ** :  -0.3485-0.6218 0.0000  plane waves:    4742
 k-point ** :  -0.3333-0.7191 0.0000  plane waves:    4732
 k-point ** :  -0.3333-0.7060 0.0000  plane waves:    4728
 k-point ** :  -0.3333-0.6929 0.0000  plane waves:    4726
 k-point ** :  -0.3333-0.6798 0.0000  plane waves:    4718
 k-point ** :  -0.3333-0.6667 0.0000  plane waves:    4734
 k-point ** :  -0.3333-0.6536 0.0000  plane waves:    4718
 k-point ** :  -0.3333-0.6404 0.0000  plane waves:    4726
 k-point ** :  -0.3333-0.6273 0.0000  plane waves:    4728
 k-point ** :  -0.3333-0.6142 0.0000  plane waves:    4732
 k-point ** :  -0.3182-0.7116 0.0000  plane waves:    4742
 k-point ** :  -0.3182-0.6984 0.0000  plane waves:    4714
 k-point ** :  -0.3182-0.6853 0.0000  plane waves:    4710
 k-point ** :  -0.3182-0.6722 0.0000  plane waves:    4714
 k-point ** :  -0.3182-0.6591 0.0000  plane waves:    4726
 k-point ** :  -0.3182-0.6460 0.0000  plane waves:    4714
 k-point ** :  -0.3182-0.6329 0.0000  plane waves:    4710
 k-point ** :  -0.3182-0.6198 0.0000  plane waves:    4714
 k-point ** :  -0.3182-0.6066 0.0000  plane waves:    4742
 k-point ** :  -0.3030-0.7040 0.0000  plane waves:    4730
 k-point ** :  -0.3030-0.6909 0.0000  plane waves:    4722
 k-point ** :  -0.3030-0.6778 0.0000  plane waves:    4720
 k-point ** :  -0.3030-0.6646 0.0000  plane waves:    4722
 k-point ** :  -0.3030-0.6515 0.0000  plane waves:    4734
 k-point ** :  -0.3030-0.6384 0.0000  plane waves:    4722
 k-point ** :  -0.3030-0.6253 0.0000  plane waves:    4720
 k-point ** :  -0.3030-0.6122 0.0000  plane waves:    4722
 k-point ** :  -0.3030-0.5991 0.0000  plane waves:    4730
 k-point ** :  -0.2879-0.6964 0.0000  plane waves:    4730
 k-point ** :  -0.2879-0.6833 0.0000  plane waves:    4738
 k-point ** :  -0.2879-0.6702 0.0000  plane waves:    4736
 k-point ** :  -0.2879-0.6571 0.0000  plane waves:    4728
 k-point ** :  -0.2879-0.6440 0.0000  plane waves:    4730
 k-point ** :  -0.2879-0.6308 0.0000  plane waves:    4728
 k-point ** :  -0.2879-0.6177 0.0000  plane waves:    4736
 k-point ** :  -0.2879-0.6046 0.0000  plane waves:    4738
 k-point ** :  -0.2879-0.5915 0.0000  plane waves:    4730
 k-point ** :  -0.2728-0.6888 0.0000  plane waves:    4734
 k-point ** :  -0.2728-0.6757 0.0000  plane waves:    4730
 k-point ** :  -0.2728-0.6626 0.0000  plane waves:    4724
 k-point ** :  -0.2728-0.6495 0.0000  plane waves:    4742
 k-point ** :  -0.2728-0.6364 0.0000  plane waves:    4742
 k-point ** :  -0.2728-0.6233 0.0000  plane waves:    4742
 k-point ** :  -0.2728-0.6102 0.0000  plane waves:    4724
 k-point ** :  -0.2728-0.5970 0.0000  plane waves:    4730
 k-point ** :  -0.2728-0.5839 0.0000  plane waves:    4734

 maximum number of plane-waves:      4746
 maximum index in each direction: 
   IXMAX=    5   IYMAX=    5   IZMAX=   24
   IXMIN=   -5   IYMIN=   -5   IZMIN=  -24


 total amount of memory used by VASP MPI-rank0   507382. kBytes
=======================================================================

   base      :      30000. kBytes
   nonl-proj :     110828. kBytes
   grid      :      41943. kBytes
   one-center:        186. kBytes
   wavefun   :     324425. kBytes
 
     INWAV:  cpu time    0.0000: real time    0.0000
 initial charge density was supplied:
 number of electron      18.0000011 magnetization       0.0000000      0.0000000     -0.0000000
 keeping initial charge density in first step


--------------------------------------------------------------------------------------------------------


 Maximum index for augmentation-charges         9753 (set IRDMAX)


--------------------------------------------------------------------------------------------------------


 First call to EWALD:  gamma=   0.349
 Maximum number of real-space cells 5x 5x 1
 Maximum number of reciprocal cells 2x 2x 7

    FEWALD:  cpu time    0.0007: real time    0.0007


--------------------------------------- Iteration      1(   1)  ---------------------------------------


    POTLOK:  cpu time    0.2218: real time    0.2219
    SETDIJ:  cpu time    0.0141: real time    0.0141
     EDDAV:  cpu time   16.5299: real time   16.5487
       DOS:  cpu time    0.0036: real time    0.0036
    --------------------------------------------
      LOOP:  cpu time   16.7693: real time   16.7882

 eigenvalue-minimisations  :  8424
 total energy-change (2. order) : 0.1155203E+03  (-0.6582477E+03)
 number of electron      18.0000011 magnetization       0.0000000      0.0000000     -0.0000000
 augmentation part       18.0000011 magnetization       0.0000000      0.0000000     -0.0000000

 Free energy of the ion-electron system (eV)
  ---------------------------------------------------
  alpha Z        PSCENC =        22.68957348
  Ewald energy   TEWEN  =      1143.31362263
  -Hartree energ DENC   =     -1885.54596755
  -exchange      EXHF   =         0.00000000
  -V(xc)+E(xc)   XCENC  =       -35.25819018
  PAW double counting   =      1564.16423160    -1488.31076291
  entropy T*S    EENTRO =        -0.00040616
  eigenvalues    EBANDS =        23.31628838
  atomic energy  EATOM  =       771.15194512
  Solvation  Ediel_sol  =         0.00000000
  ---------------------------------------------------
  free energy    TOTEN  =       115.52033441 eV

  energy without entropy =      115.52074057  energy(sigma->0) =      115.52053749


--------------------------------------------------------------------------------------------------------




--------------------------------------- Iteration      1(   2)  ---------------------------------------


     EDDAV:  cpu time   21.7976: real time   21.8309
       DOS:  cpu time    0.0014: real time    0.0014
    --------------------------------------------
      LOOP:  cpu time   21.7989: real time   21.8323

 eigenvalue-minimisations  : 12654
 total energy-change (2. order) :-0.1294608E+03  (-0.1273972E+03)
 number of electron      18.0000011 magnetization       0.0000000      0.0000000     -0.0000000
 augmentation part       18.0000011 magnetization       0.0000000      0.0000000     -0.0000000

 Free energy of the ion-electron system (eV)
  ---------------------------------------------------
  alpha Z        PSCENC =        22.68957348
  Ewald energy   TEWEN  =      1143.31362263
  -Hartree energ DENC   =     -1885.54596755
  -exchange      EXHF   =         0.00000000
  -V(xc)+E(xc)   XCENC  =       -35.25819018
  PAW double counting   =      1564.16423160    -1488.31076291
  entropy T*S    EENTRO =        -0.00000000
  eigenvalues    EBANDS =      -106.14492596
  atomic energy  EATOM  =       771.15194512
  Solvation  Ediel_sol  =         0.00000000
  ---------------------------------------------------
  free energy    TOTEN  =       -13.94047377 eV

  energy without entropy =      -13.94047377  energy(sigma->0) =      -13.94047377


--------------------------------------------------------------------------------------------------------




--------------------------------------- Iteration      1(   3)  ---------------------------------------


     EDDAV:  cpu time   19.0512: real time   19.0635
       DOS:  cpu time    0.0013: real time    0.0013
    --------------------------------------------
      LOOP:  cpu time   19.0525: real time   19.0648

 eigenvalue-minimisations  : 10508
 total energy-change (2. order) :-0.1057428E+02  (-0.1049044E+02)
 number of electron      18.0000011 magnetization       0.0000000      0.0000000     -0.0000000
 augmentation part       18.0000011 magnetization       0.0000000      0.0000000     -0.0000000

 Free energy of the ion-electron system (eV)
  ---------------------------------------------------
  alpha Z        PSCENC =        22.68957348
  Ewald energy   TEWEN  =      1143.31362263
  -Hartree energ DENC   =     -1885.54596755
  -exchange      EXHF   =         0.00000000
  -V(xc)+E(xc)   XCENC  =       -35.25819018
  PAW double counting   =      1564.16423160    -1488.31076291
  entropy T*S    EENTRO =        -0.00000000
  eigenvalues    EBANDS =      -116.71920115
  atomic energy  EATOM  =       771.15194512
  Solvation  Ediel_sol  =         0.00000000
  ---------------------------------------------------
  free energy    TOTEN  =       -24.51474896 eV

  energy without entropy =      -24.51474896  energy(sigma->0) =      -24.51474896


--------------------------------------------------------------------------------------------------------




--------------------------------------- Iteration      1(   4)  ---------------------------------------


     EDDAV:  cpu time   19.1277: real time   19.1439
       DOS:  cpu time    0.0014: real time    0.0014
    --------------------------------------------
      LOOP:  cpu time   19.1291: real time   19.1454

 eigenvalue-minimisations  : 10632
 total energy-change (2. order) :-0.2115587E+00  (-0.2105698E+00)
 number of electron      18.0000011 magnetization       0.0000000      0.0000000     -0.0000000
 augmentation part       18.0000011 magnetization       0.0000000      0.0000000     -0.0000000

 Free energy of the ion-electron system (eV)
  ---------------------------------------------------
  alpha Z        PSCENC =        22.68957348
  Ewald energy   TEWEN  =      1143.31362263
  -Hartree energ DENC   =     -1885.54596755
  -exchange      EXHF   =         0.00000000
  -V(xc)+E(xc)   XCENC  =       -35.25819018
  PAW double counting   =      1564.16423160    -1488.31076291
  entropy T*S    EENTRO =        -0.00000000
  eigenvalues    EBANDS =      -116.93075985
  atomic energy  EATOM  =       771.15194512
  Solvation  Ediel_sol  =         0.00000000
  ---------------------------------------------------
  free energy    TOTEN  =       -24.72630766 eV

  energy without entropy =      -24.72630766  energy(sigma->0) =      -24.72630766


--------------------------------------------------------------------------------------------------------




--------------------------------------- Iteration      1(   5)  ---------------------------------------


     EDDAV:  cpu time   18.5393: real time   18.5494
       DOS:  cpu time    0.0015: real time    0.0015
    --------------------------------------------
      LOOP:  cpu time   18.5408: real time   18.5509

 eigenvalue-minimisations  : 10202
 total energy-change (2. order) :-0.5408074E-02  (-0.5401844E-02)
 number of electron      18.0000011 magnetization       0.0000000      0.0000000     -0.0000000
 augmentation part       18.0000011 magnetization       0.0000000      0.0000000     -0.0000000

 Free energy of the ion-electron system (eV)
  ---------------------------------------------------
  alpha Z        PSCENC =        22.68957348
  Ewald energy   TEWEN  =      1143.31362263
  -Hartree energ DENC   =     -1885.54596755
  -exchange      EXHF   =         0.00000000
  -V(xc)+E(xc)   XCENC  =       -35.25819018
  PAW double counting   =      1564.16423160    -1488.31076291
  entropy T*S    EENTRO =        -0.00000000
  eigenvalues    EBANDS =      -116.93616792
  atomic energy  EATOM  =       771.15194512
  Solvation  Ediel_sol  =         0.00000000
  ---------------------------------------------------
  free energy    TOTEN  =       -24.73171573 eV

  energy without entropy =      -24.73171573  energy(sigma->0) =      -24.73171573


--------------------------------------------------------------------------------------------------------




--------------------------------------- Iteration      1(   6)  ---------------------------------------


     EDDAV:  cpu time   18.8662: real time   18.8772
       DOS:  cpu time    0.0015: real time    0.0015
    --------------------------------------------
      LOOP:  cpu time   18.8677: real time   18.8787

 eigenvalue-minimisations  : 10520
 total energy-change (2. order) :-0.2018460E-03  (-0.2018308E-03)
 number of electron      18.0000011 magnetization       0.0000000      0.0000000     -0.0000000
 augmentation part       18.0000011 magnetization       0.0000000      0.0000000     -0.0000000

 Free energy of the ion-electron system (eV)
  ---------------------------------------------------
  alpha Z        PSCENC =        22.68957348
  Ewald energy   TEWEN  =      1143.31362263
  -Hartree energ DENC   =     -1885.54596755
  -exchange      EXHF   =         0.00000000
  -V(xc)+E(xc)   XCENC  =       -35.25819018
  PAW double counting   =      1564.16423160    -1488.31076291
  entropy T*S    EENTRO =        -0.00000000
  eigenvalues    EBANDS =      -116.93636977
  atomic energy  EATOM  =       771.15194512
  Solvation  Ediel_sol  =         0.00000000
  ---------------------------------------------------
  free energy    TOTEN  =       -24.73191758 eV

  energy without entropy =      -24.73191758  energy(sigma->0) =      -24.73191758


--------------------------------------------------------------------------------------------------------




--------------------------------------- Iteration      1(   7)  ---------------------------------------


     EDDAV:  cpu time   18.2153: real time   18.2298
       DOS:  cpu time    0.0015: real time    0.0015
    --------------------------------------------
      LOOP:  cpu time   18.2168: real time   18.2313

 eigenvalue-minimisations  : 10234
 total energy-change (2. order) :-0.8873838E-05  (-0.8873804E-05)
 number of electron      18.0000011 magnetization       0.0000000      0.0000000     -0.0000000
 augmentation part       18.0000011 magnetization       0.0000000      0.0000000     -0.0000000

 Free energy of the ion-electron system (eV)
  ---------------------------------------------------
  alpha Z        PSCENC =        22.68957348
  Ewald energy   TEWEN  =      1143.31362263
  -Hartree energ DENC   =     -1885.54596755
  -exchange      EXHF   =         0.00000000
  -V(xc)+E(xc)   XCENC  =       -35.25819018
  PAW double counting   =      1564.16423160    -1488.31076291
  entropy T*S    EENTRO =        -0.00000000
  eigenvalues    EBANDS =      -116.93637864
  atomic energy  EATOM  =       771.15194512
  Solvation  Ediel_sol  =         0.00000000
  ---------------------------------------------------
  free energy    TOTEN  =       -24.73192645 eV

  energy without entropy =      -24.73192645  energy(sigma->0) =      -24.73192645


--------------------------------------------------------------------------------------------------------




--------------------------------------- Iteration      1(   8)  ---------------------------------------


     EDDAV:  cpu time   18.1018: real time   18.1131
       DOS:  cpu time    0.0015: real time    0.0015
    --------------------------------------------
      LOOP:  cpu time   18.1033: real time   18.1146

 eigenvalue-minimisations  : 10066
 total energy-change (2. order) :-0.4406645E-06  (-0.4406748E-06)
 number of electron      18.0000011 magnetization       0.0000000      0.0000000     -0.0000000
 augmentation part       18.0000011 magnetization       0.0000000      0.0000000     -0.0000000

 Free energy of the ion-electron system (eV)
  ---------------------------------------------------
  alpha Z        PSCENC =        22.68957348
  Ewald energy   TEWEN  =      1143.31362263
  -Hartree energ DENC   =     -1885.54596755
  -exchange      EXHF   =         0.00000000
  -V(xc)+E(xc)   XCENC  =       -35.25819018
  PAW double counting   =      1564.16423160    -1488.31076291
  entropy T*S    EENTRO =        -0.00000000
  eigenvalues    EBANDS =      -116.93637908
  atomic energy  EATOM  =       771.15194512
  Solvation  Ediel_sol  =         0.00000000
  ---------------------------------------------------
  free energy    TOTEN  =       -24.73192689 eV

  energy without entropy =      -24.73192689  energy(sigma->0) =      -24.73192689


--------------------------------------------------------------------------------------------------------




 average (electrostatic) potential at core
  the test charge radii are     1.2296  0.9698
  (the norm of the test charge is              1.0000)
       1 -44.8153       2 -92.6533       3 -92.6533
 
 
 
 E-fermi :  -1.1667     XC(G=0):  -5.0950     alpha+bet : -4.8360


 k-point     1 :       0.2728    0.5839    0.0000
  band No.  band energies     occupation 
      1     -13.3493      1.00000
      2     -13.3205      1.00000
      3     -13.2128      1.00000
      4     -13.2096      1.00000
      5      -6.5475      1.00000
      6      -6.5397      1.00000
      7      -6.2339      1.00000
      8      -6.2117      1.00000
      9      -5.0882      1.00000
     10      -5.0691      1.00000
     11      -4.7002      1.00000
     12      -4.6806      1.00000
     13      -4.4283      1.00000
     14      -4.3922      1.00000
     15      -3.4306      1.00000
     16      -3.4233      1.00000
     17      -1.5767      1.00000
     18      -1.4465      1.00000
     19       0.5615      0.00000
     20       0.5761      0.00000
     21       1.5673      0.00000
     22       1.5860      0.00000
     23       1.8047      0.00000
     24       1.9364      0.00000
     25       3.2855      0.00000
     26       3.3570      0.00000

 k-point     2 :       0.2728    0.5970    0.0000
  band No.  band energies     occupation 
      1     -13.3309      1.00000
      2     -13.3016      1.00000
      3     -13.2026      1.00000
      4     -13.1993      1.00000
      5      -6.5775      1.00000
      6      -6.5698      1.00000
      7      -6.2011      1.00000
      8      -6.1762      1.00000
      9      -5.1453      1.00000
     10      -5.1262      1.00000
     11      -4.7146      1.00000
     12      -4.6980      1.00000
     13      -4.4016      1.00000
     14      -4.3637      1.00000
     15      -3.4725      1.00000
     16      -3.4626      1.00000
     17      -1.5402      1.00000
     18      -1.4069      1.00000
     19       0.5294      0.00000
     20       0.5418      0.00000
     21       1.5613      0.00000
     22       1.5838      0.00000
     23       1.8494      0.00000
     24       1.9853      0.00000
     25       3.3035      0.00000
     26       3.3774      0.00000

 k-point     3 :       0.2728    0.6102    0.0000
  band No.  band energies     occupation 
      1     -13.3177      1.00000
      2     -13.2879      1.00000
      3     -13.1952      1.00000
      4     -13.1919      1.00000
      5      -6.5990      1.00000
      6      -6.5915      1.00000
      7      -6.1735      1.00000
      8      -6.1463      1.00000
      9      -5.1935      1.00000
     10      -5.1752      1.00000
     11      -4.7219      1.00000
     12      -4.7070      1.00000
     13      -4.3803      1.00000
     14      -4.3407      1.00000
     15      -3.5052      1.00000
     16      -3.4929      1.00000
     17      -1.5122      1.00000
     18      -1.3764      1.00000
     19       0.5043      0.00000
     20       0.5146      0.00000
     21       1.5568      0.00000
     22       1.5817      0.00000
     23       1.8833      0.00000
     24       2.0219      0.00000
     25       3.3167      0.00000
     26       3.3923      0.00000

 k-point     4 :       0.2728    0.6233    0.0000
  band No.  band energies     occupation 
      1     -13.3097      1.00000
      2     -13.2796      1.00000
      3     -13.1907      1.00000
      4     -13.1874      1.00000
      5      -6.6120      1.00000
      6      -6.6046      1.00000
      7      -6.1549      1.00000
      8      -6.1261      1.00000
      9      -5.2257      1.00000
     10      -5.2083      1.00000
     11      -4.7253      1.00000
     12      -4.7113      1.00000
     13      -4.3665      1.00000
     14      -4.3256      1.00000
     15      -3.5260      1.00000
     16      -3.5122      1.00000
     17      -1.4946      1.00000
     18      -1.3571      1.00000
     19       0.4882      0.00000
     20       0.4971      0.00000
     21       1.5541      0.00000
     22       1.5803      0.00000
     23       1.9045      0.00000
     24       2.0446      0.00000
     25       3.3248      0.00000
     26       3.4014      0.00000

 k-point     5 :       0.2728    0.6364    0.0000
  band No.  band energies     occupation 
      1     -13.3070      1.00000
      2     -13.2768      1.00000
      3     -13.1892      1.00000
      4     -13.1859      1.00000
      5      -6.6164      1.00000
      6      -6.6090      1.00000
      7      -6.1483      1.00000
      8      -6.1189      1.00000
      9      -5.2371      1.00000
     10      -5.2199      1.00000
     11      -4.7263      1.00000
     12      -4.7126      1.00000
     13      -4.3617      1.00000
     14      -4.3203      1.00000
     15      -3.5332      1.00000
     16      -3.5188      1.00000
     17      -1.4885      1.00000
     18      -1.3505      1.00000
     19       0.4826      0.00000
     20       0.4911      0.00000
     21       1.5531      0.00000
     22       1.5798      0.00000
     23       1.9118      0.00000
     24       2.0523      0.00000
     25       3.3275      0.00000
     26       3.4044      0.00000

 k-point     6 :       0.2728    0.6495    0.0000
  band No.  band energies     occupation 
      1     -13.3097      1.00000
      2     -13.2796      1.00000
      3     -13.1907      1.00000
      4     -13.1874      1.00000
      5      -6.6120      1.00000
      6      -6.6046      1.00000
      7      -6.1549      1.00000
      8      -6.1261      1.00000
      9      -5.2257      1.00000
     10      -5.2083      1.00000
     11      -4.7253      1.00000
     12      -4.7113      1.00000
     13      -4.3665      1.00000
     14      -4.3256      1.00000
     15      -3.5260      1.00000
     16      -3.5122      1.00000
     17      -1.4946      1.00000
     18      -1.3571      1.00000
     19       0.4882      0.00000
     20       0.4971      0.00000
     21       1.5541      0.00000
     22       1.5803      0.00000
     23       1.9046      0.00000
     24       2.0446      0.00000
     25       3.3248      0.00000
     26       3.4014      0.00000

 k-point     7 :       0.2728    0.6626    0.0000
  band No.  band energies     occupation 
      1     -13.3177      1.00000
      2     -13.2879      1.00000
      3     -13.1952      1.00000
      4     -13.1919      1.00000
      5      -6.5990      1.00000
      6      -6.5915      1.00000
      7      -6.1735      1.00000
      8      -6.1463      1.00000
      9      -5.1935      1.00000
     10      -5.1752      1.00000
     11      -4.7219      1.00000
     12      -4.7070      1.00000
     13      -4.3803      1.00000
     14      -4.3407      1.00000
     15      -3.5052      1.00000
     16      -3.4929      1.00000
     17      -1.5122      1.00000
     18      -1.3764      1.00000
     19       0.5043      0.00000
     20       0.5146      0.00000
     21       1.5568      0.00000
     22       1.5817      0.00000
     23       1.8833      0.00000
     24       2.0219      0.00000
     25       3.3167      0.00000
     26       3.3923      0.00000

 k-point     8 :       0.2728    0.6757    0.0000
  band No.  band energies     occupation 
      1     -13.3309      1.00000
      2     -13.3016      1.00000
      3     -13.2026      1.00000
      4     -13.1993      1.00000
      5      -6.5775      1.00000
      6      -6.5698      1.00000
      7      -6.2011      1.00000
      8      -6.1762      1.00000
      9      -5.1452      1.00000
     10      -5.1262      1.00000
     11      -4.7146      1.00000
     12      -4.6980      1.00000
     13      -4.4016      1.00000
     14      -4.3637      1.00000
     15      -3.4725      1.00000
     16      -3.4626      1.00000
     17      -1.5402      1.00000
     18      -1.4069      1.00000
     19       0.5294      0.00000
     20       0.5418      0.00000
     21       1.5613      0.00000
     22       1.5838      0.00000
     23       1.8494      0.00000
     24       1.9853      0.00000
     25       3.3035      0.00000
     26       3.3774      0.00000

 k-point     9 :       0.2728    0.6888    0.0000
  band No.  band energies     occupation 
      1     -13.3493      1.00000
      2     -13.3205      1.00000
      3     -13.2128      1.00000
      4     -13.2096      1.00000
      5      -6.5475      1.00000
      6      -6.5397      1.00000
      7      -6.2339      1.00000
      8      -6.2117      1.00000
      9      -5.0882      1.00000
     10      -5.0691      1.00000
     11      -4.7002      1.00000
     12      -4.6806      1.00000
     13      -4.4283      1.00000
     14      -4.3922      1.00000
     15      -3.4306      1.00000
     16      -3.4233      1.00000
     17      -1.5767      1.00000
     18      -1.4465      1.00000
     19       0.5615      0.00000
     20       0.5761      0.00000
     21       1.5673      0.00000
     22       1.5860      0.00000
     23       1.8047      0.00000
     24       1.9364      0.00000
     25       3.2855      0.00000
     26       3.3570      0.00000

 k-point    10 :       0.2879    0.5915    0.0000
  band No.  band energies     occupation 
      1     -13.3356      1.00000
      2     -13.3062      1.00000
      3     -13.2046      1.00000
      4     -13.2013      1.00000
      5      -6.5719      1.00000
      6      -6.5642      1.00000
      7      -6.1877      1.00000
      8      -6.1641      1.00000
      9      -5.1050      1.00000
     10      -5.0790      1.00000
     11      -4.7650      1.00000
     12      -4.7543      1.00000
     13      -4.4089      1.00000
     14      -4.3715      1.00000
     15      -3.4608      1.00000
     16      -3.4513      1.00000
     17      -1.5496      1.00000
     18      -1.4167      1.00000
     19       0.5327      0.00000
     20       0.5447      0.00000
     21       1.5507      0.00000
     22       1.5727      0.00000
     23       1.8399      0.00000
     24       1.9748      0.00000
     25       3.3091      0.00000
     26       3.3826      0.00000

 k-point    11 :       0.2879    0.6046    0.0000
  band No.  band energies     occupation 
      1     -13.3184      1.00000
      2     -13.2884      1.00000
      3     -13.1948      1.00000
      4     -13.1914      1.00000
      5      -6.6006      1.00000
      6      -6.5930      1.00000
      7      -6.1428      1.00000
      8      -6.1166      1.00000
      9      -5.1692      1.00000
     10      -5.1425      1.00000
     11      -4.7840      1.00000
     12      -4.7770      1.00000
     13      -4.3814      1.00000
     14      -4.3417      1.00000
     15      -3.5028      1.00000
     16      -3.4902      1.00000
     17      -1.5134      1.00000
     18      -1.3771      1.00000
     19       0.4987      0.00000
     20       0.5077      0.00000
     21       1.5412      0.00000
     22       1.5663      0.00000
     23       1.8845      0.00000
     24       2.0225      0.00000
     25       3.3294      0.00000
     26       3.4052      0.00000

 k-point    12 :       0.2879    0.6177    0.0000
  band No.  band energies     occupation 
      1     -13.3060      1.00000
      2     -13.2756      1.00000
      3     -13.1877      1.00000
      4     -13.1843      1.00000
      5      -6.6212      1.00000
      6      -6.6138      1.00000
      7      -6.1042      1.00000
      8      -6.0756      1.00000
      9      -5.2263      1.00000
     10      -5.2003      1.00000
     11      -4.7933      1.00000
     12      -4.7881      1.00000
     13      -4.3594      1.00000
     14      -4.3176      1.00000
     15      -3.5357      1.00000
     16      -3.5204      1.00000
     17      -1.4856      1.00000
     18      -1.3466      1.00000
     19       0.4721      0.00000
     20       0.4786      0.00000
     21       1.5343      0.00000
     22       1.5613      0.00000
     23       1.9181      0.00000
     24       2.0581      0.00000
     25       3.3443      0.00000
     26       3.4218      0.00000

 k-point    13 :       0.2879    0.6308    0.0000
  band No.  band energies     occupation 
      1     -13.2985      1.00000
      2     -13.2678      1.00000
      3     -13.1834      1.00000
      4     -13.1800      1.00000
      5      -6.6337      1.00000
      6      -6.6264      1.00000
      7      -6.0775      1.00000
      8      -6.0470      1.00000
      9      -5.2657      1.00000
     10      -5.2408      1.00000
     11      -4.7975      1.00000
     12      -4.7932      1.00000
     13      -4.3451      1.00000
     14      -4.3017      1.00000
     15      -3.5568      1.00000
     16      -3.5397      1.00000
     17      -1.4681      1.00000
     18      -1.3272      1.00000
     19       0.4551      0.00000
     20       0.4599      0.00000
     21       1.5301      0.00000
     22       1.5582      0.00000
     23       1.9389      0.00000
     24       2.0802      0.00000
     25       3.3535      0.00000
     26       3.4318      0.00000

 k-point    14 :       0.2879    0.6440    0.0000
  band No.  band energies     occupation 
      1     -13.2960      1.00000
      2     -13.2652      1.00000
      3     -13.1820      1.00000
      4     -13.1786      1.00000
      5      -6.6379      1.00000
      6      -6.6306      1.00000
      7      -6.0678      1.00000
      8      -6.0367      1.00000
      9      -5.2799      1.00000
     10      -5.2554      1.00000
     11      -4.7987      1.00000
     12      -4.7946      1.00000
     13      -4.3401      1.00000
     14      -4.2961      1.00000
     15      -3.5641      1.00000
     16      -3.5463      1.00000
     17      -1.4621      1.00000
     18      -1.3206      1.00000
     19       0.4493      0.00000
     20       0.4535      0.00000
     21       1.5287      0.00000
     22       1.5572      0.00000
     23       1.9460      0.00000
     24       2.0876      0.00000
     25       3.3565      0.00000
     26       3.4352      0.00000

 k-point    15 :       0.2879    0.6571    0.0000
  band No.  band energies     occupation 
      1     -13.2985      1.00000
      2     -13.2678      1.00000
      3     -13.1834      1.00000
      4     -13.1800      1.00000
      5      -6.6337      1.00000
      6      -6.6264      1.00000
      7      -6.0775      1.00000
      8      -6.0470      1.00000
      9      -5.2657      1.00000
     10      -5.2408      1.00000
     11      -4.7975      1.00000
     12      -4.7932      1.00000
     13      -4.3451      1.00000
     14      -4.3017      1.00000
     15      -3.5568      1.00000
     16      -3.5397      1.00000
     17      -1.4681      1.00000
     18      -1.3272      1.00000
     19       0.4551      0.00000
     20       0.4599      0.00000
     21       1.5301      0.00000
     22       1.5582      0.00000
     23       1.9389      0.00000
     24       2.0802      0.00000
     25       3.3535      0.00000
     26       3.4318      0.00000

 k-point    16 :       0.2879    0.6702    0.0000
  band No.  band energies     occupation 
      1     -13.3060      1.00000
      2     -13.2756      1.00000
      3     -13.1877      1.00000
      4     -13.1843      1.00000
      5      -6.6212      1.00000
      6      -6.6138      1.00000
      7      -6.1042      1.00000
      8      -6.0756      1.00000
      9      -5.2263      1.00000
     10      -5.2003      1.00000
     11      -4.7933      1.00000
     12      -4.7882      1.00000
     13      -4.3594      1.00000
     14      -4.3176      1.00000
     15      -3.5357      1.00000
     16      -3.5204      1.00000
     17      -1.4857      1.00000
     18      -1.3466      1.00000
     19       0.4721      0.00000
     20       0.4786      0.00000
     21       1.5343      0.00000
     22       1.5613      0.00000
     23       1.9181      0.00000
     24       2.0581      0.00000
     25       3.3443      0.00000
     26       3.4218      0.00000

 k-point    17 :       0.2879    0.6833    0.0000
  band No.  band energies     occupation 
      1     -13.3184      1.00000
      2     -13.2884      1.00000
      3     -13.1948      1.00000
      4     -13.1914      1.00000
      5      -6.6006      1.00000
      6      -6.5930      1.00000
      7      -6.1428      1.00000
      8      -6.1166      1.00000
      9      -5.1692      1.00000
     10      -5.1425      1.00000
     11      -4.7840      1.00000
     12      -4.7770      1.00000
     13      -4.3814      1.00000
     14      -4.3417      1.00000
     15      -3.5028      1.00000
     16      -3.4902      1.00000
     17      -1.5134      1.00000
     18      -1.3771      1.00000
     19       0.4987      0.00000
     20       0.5077      0.00000
     21       1.5412      0.00000
     22       1.5663      0.00000
     23       1.8845      0.00000
     24       2.0225      0.00000
     25       3.3294      0.00000
     26       3.4053      0.00000

 k-point    18 :       0.2879    0.6964    0.0000
  band No.  band energies     occupation 
      1     -13.3356      1.00000
      2     -13.3062      1.00000
      3     -13.2046      1.00000
      4     -13.2013      1.00000
      5      -6.5719      1.00000
      6      -6.5642      1.00000
      7      -6.1877      1.00000
      8      -6.1641      1.00000
      9      -5.1050      1.00000
     10      -5.0790      1.00000
     11      -4.7650      1.00000
     12      -4.7543      1.00000
     13      -4.4089      1.00000
     14      -4.3715      1.00000
     15      -3.4608      1.00000
     16      -3.4513      1.00000
     17      -1.5496      1.00000
     18      -1.4167      1.00000
     19       0.5327      0.00000
     20       0.5447      0.00000
     21       1.5507      0.00000
     22       1.5727      0.00000
     23       1.8399      0.00000
     24       1.9748      0.00000
     25       3.3091      0.00000
     26       3.3826      0.00000

 k-point    19 :       0.3030    0.5991    0.0000
  band No.  band energies     occupation 
      1     -13.3243      1.00000
      2     -13.2946      1.00000
      3     -13.1980      1.00000
      4     -13.1947      1.00000
      5      -6.5911      1.00000
      6      -6.5835      1.00000
      7      -6.1535      1.00000
      8      -6.1284      1.00000
      9      -5.1394      1.00000
     10      -5.1105      1.00000
     11      -4.7914      1.00000
     12      -4.7855      1.00000
     13      -4.3913      1.00000
     14      -4.3525      1.00000
     15      -3.4877      1.00000
     16      -3.4762      1.00000
     17      -1.5262      1.00000
     18      -1.3910      1.00000
     19       0.5096      0.00000
     20       0.5195      0.00000
     21       1.5416      0.00000
     22       1.5657      0.00000
     23       1.8693      0.00000
     24       2.0062      0.00000
     25       3.3248      0.00000
     26       3.3999      0.00000

 k-point    20 :       0.3030    0.6122    0.0000
  band No.  band energies     occupation 
      1     -13.3084      1.00000
      2     -13.2780      1.00000
      3     -13.1887      1.00000
      4     -13.1854      1.00000
      5      -6.6184      1.00000
      6      -6.6110      1.00000
      7      -6.0965      1.00000
      8      -6.0688      1.00000
      9      -5.2066      1.00000
     10      -5.1755      1.00000
     11      -4.8190      1.00000
     12      -4.8182      1.00000
     13      -4.3637      1.00000
     14      -4.3222      1.00000
     15      -3.5290      1.00000
     16      -3.5141      1.00000
     17      -1.4909      1.00000
     18      -1.3521      1.00000
     19       0.4742      0.00000
     20       0.4806      0.00000
     21       1.5289      0.00000
     22       1.5556      0.00000
     23       1.9128      0.00000
     24       2.0523      0.00000
     25       3.3473      0.00000
     26       3.4245      0.00000

 k-point    21 :       0.3030    0.6253    0.0000
  band No.  band energies     occupation 
      1     -13.2969      1.00000
      2     -13.2660      1.00000
      3     -13.1820      1.00000
      4     -13.1786      1.00000
      5      -6.6381      1.00000
      6      -6.6308      1.00000
      7      -6.0460      1.00000
      8      -6.0158      1.00000
      9      -5.2704      1.00000
     10      -5.2395      1.00000
     11      -4.8348      1.00000
     12      -4.8332      1.00000
     13      -4.3415      1.00000
     14      -4.2975      1.00000
     15      -3.5615      1.00000
     16      -3.5436      1.00000
     17      -1.4639      1.00000
     18      -1.3221      1.00000
     19       0.4468      0.00000
     20       0.4502      0.00000
     21       1.5196      0.00000
     22       1.5480      0.00000
     23       1.9454      0.00000
     24       2.0865      0.00000
     25       3.3638      0.00000
     26       3.4426      0.00000

 k-point    22 :       0.3030    0.6384    0.0000
  band No.  band energies     occupation 
      1     -13.2899      1.00000
      2     -13.2588      1.00000
      3     -13.1779      1.00000
      4     -13.1745      1.00000
      5      -6.6500      1.00000
      6      -6.6428      1.00000
      7      -6.0096      1.00000
      8      -5.9774      1.00000
      9      -5.3168      1.00000
     10      -5.2869      1.00000
     11      -4.8425      1.00000
     12      -4.8398      1.00000
     13      -4.3270      1.00000
     14      -4.2812      1.00000
     15      -3.5826      1.00000
     16      -3.5625      1.00000
     17      -1.4468      1.00000
     18      -1.3030      1.00000
     19       0.4293      0.00000
     20       0.4308      0.00000
     21       1.5140      0.00000
     22       1.5433      0.00000
     23       1.9656      0.00000
     24       2.1076      0.00000
     25       3.3739      0.00000
     26       3.4535      0.00000

 k-point    23 :       0.3030    0.6515    0.0000
  band No.  band energies     occupation 
      1     -13.2876      1.00000
      2     -13.2564      1.00000
      3     -13.1765      1.00000
      4     -13.1731      1.00000
      5      -6.6540      1.00000
      6      -6.6468      1.00000
      7      -5.9960      1.00000
      8      -5.9631      1.00000
      9      -5.3340      1.00000
     10      -5.3046      1.00000
     11      -4.8447      1.00000
     12      -4.8418      1.00000
     13      -4.3220      1.00000
     14      -4.2754      1.00000
     15      -3.5899      1.00000
     16      -3.5691      1.00000
     17      -1.4410      1.00000
     18      -1.2965      1.00000
     19       0.4233      0.00000
     20       0.4241      0.00000
     21       1.5121      0.00000
     22       1.5418      0.00000
     23       1.9724      0.00000
     24       2.1148      0.00000
     25       3.3773      0.00000
     26       3.4572      0.00000

 k-point    24 :       0.3030    0.6646    0.0000
  band No.  band energies     occupation 
      1     -13.2899      1.00000
      2     -13.2588      1.00000
      3     -13.1779      1.00000
      4     -13.1745      1.00000
      5      -6.6500      1.00000
      6      -6.6428      1.00000
      7      -6.0096      1.00000
      8      -5.9774      1.00000
      9      -5.3168      1.00000
     10      -5.2869      1.00000
     11      -4.8425      1.00000
     12      -4.8398      1.00000
     13      -4.3270      1.00000
     14      -4.2812      1.00000
     15      -3.5826      1.00000
     16      -3.5625      1.00000
     17      -1.4468      1.00000
     18      -1.3030      1.00000
     19       0.4293      0.00000
     20       0.4308      0.00000
     21       1.5140      0.00000
     22       1.5433      0.00000
     23       1.9656      0.00000
     24       2.1076      0.00000
     25       3.3739      0.00000
     26       3.4535      0.00000

 k-point    25 :       0.3030    0.6778    0.0000
  band No.  band energies     occupation 
      1     -13.2969      1.00000
      2     -13.2660      1.00000
      3     -13.1820      1.00000
      4     -13.1786      1.00000
      5      -6.6381      1.00000
      6      -6.6308      1.00000
      7      -6.0460      1.00000
      8      -6.0158      1.00000
      9      -5.2704      1.00000
     10      -5.2395      1.00000
     11      -4.8348      1.00000
     12      -4.8332      1.00000
     13      -4.3415      1.00000
     14      -4.2975      1.00000
     15      -3.5615      1.00000
     16      -3.5436      1.00000
     17      -1.4639      1.00000
     18      -1.3221      1.00000
     19       0.4468      0.00000
     20       0.4502      0.00000
     21       1.5196      0.00000
     22       1.5480      0.00000
     23       1.9454      0.00000
     24       2.0865      0.00000
     25       3.3638      0.00000
     26       3.4426      0.00000

 k-point    26 :       0.3030    0.6909    0.0000
  band No.  band energies     occupation 
      1     -13.3084      1.00000
      2     -13.2780      1.00000
      3     -13.1887      1.00000
      4     -13.1854      1.00000
      5      -6.6184      1.00000
      6      -6.6110      1.00000
      7      -6.0965      1.00000
      8      -6.0688      1.00000
      9      -5.2066      1.00000
     10      -5.1755      1.00000
     11      -4.8190      1.00000
     12      -4.8182      1.00000
     13      -4.3637      1.00000
     14      -4.3222      1.00000
     15      -3.5290      1.00000
     16      -3.5141      1.00000
     17      -1.4909      1.00000
     18      -1.3521      1.00000
     19       0.4742      0.00000
     20       0.4806      0.00000
     21       1.5289      0.00000
     22       1.5556      0.00000
     23       1.9128      0.00000
     24       2.0523      0.00000
     25       3.3473      0.00000
     26       3.4245      0.00000

 k-point    27 :       0.3030    0.7040    0.0000
  band No.  band energies     occupation 
      1     -13.3243      1.00000
      2     -13.2946      1.00000
      3     -13.1980      1.00000
      4     -13.1947      1.00000
      5      -6.5911      1.00000
      6      -6.5835      1.00000
      7      -6.1535      1.00000
      8      -6.1284      1.00000
      9      -5.1394      1.00000
     10      -5.1105      1.00000
     11      -4.7914      1.00000
     12      -4.7855      1.00000
     13      -4.3913      1.00000
     14      -4.3525      1.00000
     15      -3.4877      1.00000
     16      -3.4762      1.00000
     17      -1.5262      1.00000
     18      -1.3910      1.00000
     19       0.5096      0.00000
     20       0.5195      0.00000
     21       1.5416      0.00000
     22       1.5657      0.00000
     23       1.8693      0.00000
     24       2.0062      0.00000
     25       3.3248      0.00000
     26       3.3999      0.00000

 k-point    28 :       0.3182    0.6066    0.0000
  band No.  band energies     occupation 
      1     -13.3160      1.00000
      2     -13.2860      1.00000
      3     -13.1934      1.00000
      4     -13.1901      1.00000
      5      -6.6045      1.00000
      6      -6.5970      1.00000
      7      -6.1352      1.00000
      8      -6.1086      1.00000
      9      -5.1788      1.00000
     10      -5.1518      1.00000
     11      -4.7875      1.00000
     12      -4.7812      1.00000
     13      -4.3774      1.00000
     14      -4.3373      1.00000
     15      -3.5088      1.00000
     16      -3.4958      1.00000
     17      -1.5083      1.00000
     18      -1.3715      1.00000
     19       0.4936      0.00000
     20       0.5022      0.00000
     21       1.5396      0.00000
     22       1.5650      0.00000
     23       1.8908      0.00000
     24       2.0292      0.00000
     25       3.3325      0.00000
     26       3.4087      0.00000

 k-point    29 :       0.3182    0.6198    0.0000
  band No.  band energies     occupation 
      1     -13.3014      1.00000
      2     -13.2707      1.00000
      3     -13.1846      1.00000
      4     -13.1812      1.00000
      5      -6.6304      1.00000
      6      -6.6230      1.00000
      7      -6.0679      1.00000
      8      -6.0387      1.00000
      9      -5.2441      1.00000
     10      -5.2132      1.00000
     11      -4.8271      1.00000
     12      -4.8266      1.00000
     13      -4.3504      1.00000
     14      -4.3075      1.00000
     15      -3.5485      1.00000
     16      -3.5319      1.00000
     17      -1.4746      1.00000
     18      -1.3340      1.00000
     19       0.4579      0.00000
     20       0.4626      0.00000
     21       1.5237      0.00000
     22       1.5514      0.00000
     23       1.9325      0.00000
     24       2.0730      0.00000
     25       3.3570      0.00000
     26       3.4352      0.00000

 k-point    30 :       0.3182    0.6329    0.0000
  band No.  band energies     occupation 
      1     -13.2908      1.00000
      2     -13.2597      1.00000
      3     -13.1783      1.00000
      4     -13.1748      1.00000
      5      -6.6491      1.00000
      6      -6.6418      1.00000
      7      -6.0065      1.00000
      8      -5.9749      1.00000
      9      -5.3108      1.00000
     10      -5.2788      1.00000
     11      -4.8526      1.00000
     12      -4.8483      1.00000
     13      -4.3287      1.00000
     14      -4.2830      1.00000
     15      -3.5800      1.00000
     16      -3.5601      1.00000
     17      -1.4488      1.00000
     18      -1.3051      1.00000
     19       0.4302      0.00000
     20       0.4317      0.00000
     21       1.5121      0.00000
     22       1.5413      0.00000
     23       1.9636      0.00000
     24       2.1055      0.00000
     25       3.3749      0.00000
     26       3.4545      0.00000

 k-point    31 :       0.3182    0.6460    0.0000
  band No.  band energies     occupation 
      1     -13.2844      1.00000
      2     -13.2530      1.00000
      3     -13.1744      1.00000
      4     -13.1710      1.00000
      5      -6.6604      1.00000
      6      -6.6532      1.00000
      7      -5.9606      1.00000
      8      -5.9270      1.00000
      9      -5.3624      1.00000
     10      -5.3307      1.00000
     11      -4.8649      1.00000
     12      -4.8590      1.00000
     13      -4.3145      1.00000
     14      -4.2669      1.00000
     15      -3.6004      1.00000
     16      -3.5782      1.00000
     17      -1.4325      1.00000
     18      -1.2868      1.00000
     19       0.4120      0.00000
     20       0.4127      0.00000
     21       1.5050      0.00000
     22       1.5351      0.00000
     23       1.9828      0.00000
     24       2.1254      0.00000
     25       3.3859      0.00000
     26       3.4663      0.00000

 k-point    32 :       0.3182    0.6591    0.0000
  band No.  band energies     occupation 
      1     -13.2823      1.00000
      2     -13.2508      1.00000
      3     -13.1731      1.00000
      4     -13.1697      1.00000
      5      -6.6641      1.00000
      6      -6.6570      1.00000
      7      -5.9430      1.00000
      8      -5.9085      1.00000
      9      -5.3823      1.00000
     10      -5.3510      1.00000
     11      -4.8685      1.00000
     12      -4.8621      1.00000
     13      -4.3096      1.00000
     14      -4.2612      1.00000
     15      -3.6075      1.00000
     16      -3.5845      1.00000
     17      -1.4270      1.00000
     18      -1.2806      1.00000
     19       0.4052      0.00000
     20       0.4067      0.00000
     21       1.5026      0.00000
     22       1.5330      0.00000
     23       1.9893      0.00000
     24       2.1321      0.00000
     25       3.3896      0.00000
     26       3.4703      0.00000

 k-point    33 :       0.3182    0.6722    0.0000
  band No.  band energies     occupation 
      1     -13.2844      1.00000
      2     -13.2530      1.00000
      3     -13.1744      1.00000
      4     -13.1710      1.00000
      5      -6.6604      1.00000
      6      -6.6532      1.00000
      7      -5.9606      1.00000
      8      -5.9270      1.00000
      9      -5.3624      1.00000
     10      -5.3307      1.00000
     11      -4.8649      1.00000
     12      -4.8590      1.00000
     13      -4.3145      1.00000
     14      -4.2669      1.00000
     15      -3.6004      1.00000
     16      -3.5782      1.00000
     17      -1.4325      1.00000
     18      -1.2868      1.00000
     19       0.4120      0.00000
     20       0.4127      0.00000
     21       1.5050      0.00000
     22       1.5351      0.00000
     23       1.9828      0.00000
     24       2.1254      0.00000
     25       3.3859      0.00000
     26       3.4663      0.00000

 k-point    34 :       0.3182    0.6853    0.0000
  band No.  band energies     occupation 
      1     -13.2908      1.00000
      2     -13.2597      1.00000
      3     -13.1783      1.00000
      4     -13.1748      1.00000
      5      -6.6491      1.00000
      6      -6.6418      1.00000
      7      -6.0065      1.00000
      8      -5.9749      1.00000
      9      -5.3108      1.00000
     10      -5.2788      1.00000
     11      -4.8526      1.00000
     12      -4.8483      1.00000
     13      -4.3287      1.00000
     14      -4.2830      1.00000
     15      -3.5800      1.00000
     16      -3.5601      1.00000
     17      -1.4488      1.00000
     18      -1.3051      1.00000
     19       0.4302      0.00000
     20       0.4317      0.00000
     21       1.5121      0.00000
     22       1.5413      0.00000
     23       1.9636      0.00000
     24       2.1055      0.00000
     25       3.3749      0.00000
     26       3.4545      0.00000

 k-point    35 :       0.3182    0.6984    0.0000
  band No.  band energies     occupation 
      1     -13.3014      1.00000
      2     -13.2707      1.00000
      3     -13.1846      1.00000
      4     -13.1812      1.00000
      5      -6.6304      1.00000
      6      -6.6230      1.00000
      7      -6.0679      1.00000
      8      -6.0387      1.00000
      9      -5.2441      1.00000
     10      -5.2132      1.00000
     11      -4.8271      1.00000
     12      -4.8266      1.00000
     13      -4.3504      1.00000
     14      -4.3075      1.00000
     15      -3.5485      1.00000
     16      -3.5319      1.00000
     17      -1.4746      1.00000
     18      -1.3340      1.00000
     19       0.4579      0.00000
     20       0.4626      0.00000
     21       1.5237      0.00000
     22       1.5514      0.00000
     23       1.9325      0.00000
     24       2.0730      0.00000
     25       3.3570      0.00000
     26       3.4352      0.00000

 k-point    36 :       0.3182    0.7116    0.0000
  band No.  band energies     occupation 
      1     -13.3160      1.00000
      2     -13.2860      1.00000
      3     -13.1934      1.00000
      4     -13.1901      1.00000
      5      -6.6045      1.00000
      6      -6.5970      1.00000
      7      -6.1352      1.00000
      8      -6.1086      1.00000
      9      -5.1787      1.00000
     10      -5.1518      1.00000
     11      -4.7875      1.00000
     12      -4.7812      1.00000
     13      -4.3774      1.00000
     14      -4.3373      1.00000
     15      -3.5088      1.00000
     16      -3.4958      1.00000
     17      -1.5083      1.00000
     18      -1.3715      1.00000
     19       0.4936      0.00000
     20       0.5022      0.00000
     21       1.5396      0.00000
     22       1.5650      0.00000
     23       1.8908      0.00000
     24       2.0292      0.00000
     25       3.3325      0.00000
     26       3.4087      0.00000

 k-point    37 :       0.3333    0.6142    0.0000
  band No.  band energies     occupation 
      1     -13.3111      1.00000
      2     -13.2810      1.00000
      3     -13.1910      1.00000
      4     -13.1876      1.00000
      5      -6.6115      1.00000
      6      -6.6041      1.00000
      7      -6.1354      1.00000
      8      -6.1074      1.00000
      9      -5.2091      1.00000
     10      -5.1865      1.00000
     11      -4.7642      1.00000
     12      -4.7548      1.00000
     13      -4.3689      1.00000
     14      -4.3281      1.00000
     15      -3.5219      1.00000
     16      -3.5080      1.00000
     17      -1.4975      1.00000
     18      -1.3599      1.00000
     19       0.4863      0.00000
     20       0.4945      0.00000
     21       1.5438      0.00000
     22       1.5699      0.00000
     23       1.9027      0.00000
     24       2.0422      0.00000
     25       3.3325      0.00000
     26       3.4092      0.00000

 k-point    38 :       0.3333    0.6273    0.0000
  band No.  band energies     occupation 
      1     -13.2978      1.00000
      2     -13.2670      1.00000
      3     -13.1827      1.00000
      4     -13.1793      1.00000
      5      -6.6358      1.00000
      6      -6.6285      1.00000
      7      -6.0618      1.00000
      8      -6.0315      1.00000
      9      -5.2674      1.00000
     10      -5.2395      1.00000
     11      -4.8159      1.00000
     12      -4.8145      1.00000
     13      -4.3434      1.00000
     14      -4.2997      1.00000
     15      -3.5590      1.00000
     16      -3.5415      1.00000
     17      -1.4662      1.00000
     18      -1.3248      1.00000
     19       0.4510      0.00000
     20       0.4551      0.00000
     21       1.5247      0.00000
     22       1.5530      0.00000
     23       1.9420      0.00000
     24       2.0832      0.00000
     25       3.3587      0.00000
     26       3.4373      0.00000

 k-point    39 :       0.3333    0.6404    0.0000
  band No.  band energies     occupation 
      1     -13.2881      1.00000
      2     -13.2569      1.00000
      3     -13.1768      1.00000
      4     -13.1733      1.00000
      5      -6.6534      1.00000
      6      -6.6462      1.00000
      7      -5.9941      1.00000
      8      -5.9615      1.00000
      9      -5.3305      1.00000
     10      -5.2998      1.00000
     11      -4.8507      1.00000
     12      -4.8469      1.00000
     13      -4.3230      1.00000
     14      -4.2766      1.00000
     15      -3.5883      1.00000
     16      -3.5675      1.00000
     17      -1.4422      1.00000
     18      -1.2978      1.00000
     19       0.4239      0.00000
     20       0.4247      0.00000
     21       1.5109      0.00000
     22       1.5405      0.00000
     23       1.9712      0.00000
     24       2.1134      0.00000
     25       3.3779      0.00000
     26       3.4579      0.00000

 k-point    40 :       0.3333    0.6536    0.0000
  band No.  band energies     occupation 
      1     -13.2823      1.00000
      2     -13.2508      1.00000
      3     -13.1731      1.00000
      4     -13.1697      1.00000
      5      -6.6641      1.00000
      6      -6.6569      1.00000
      7      -5.9427      1.00000
      8      -5.9083      1.00000
      9      -5.3818      1.00000
     10      -5.3505      1.00000
     11      -4.8693      1.00000
     12      -4.8628      1.00000
     13      -4.3097      1.00000
     14      -4.2613      1.00000
     15      -3.6072      1.00000
     16      -3.5843      1.00000
     17      -1.4271      1.00000
     18      -1.2807      1.00000
     19       0.4053      0.00000
     20       0.4068      0.00000
     21       1.5025      0.00000
     22       1.5329      0.00000
     23       1.9892      0.00000
     24       2.1319      0.00000
     25       3.3896      0.00000
     26       3.4704      0.00000

 k-point    41 :       0.3333    0.6667    0.0000
  band No.  band energies     occupation 
      1     -13.2804      1.00000
      2     -13.2488      1.00000
      3     -13.1719      1.00000
      4     -13.1685      1.00000
      5      -6.6676      1.00000
      6      -6.6605      1.00000
      7      -5.9228      1.00000
      8      -5.8875      1.00000
      9      -5.4023      1.00000
     10      -5.3710      1.00000
     11      -4.8749      1.00000
     12      -4.8676      1.00000
     13      -4.3051      1.00000
     14      -4.2559      1.00000
     15      -3.6138      1.00000
     16      -3.5900      1.00000
     17      -1.4220      1.00000
     18      -1.2749      1.00000
     19       0.3987      0.00000
     20       0.4009      0.00000
     21       1.4997      0.00000
     22       1.5303      0.00000
     23       1.9952      0.00000
     24       2.1382      0.00000
     25       3.3936      0.00000
     26       3.4746      0.00000

 k-point    42 :       0.3333    0.6798    0.0000
  band No.  band energies     occupation 
      1     -13.2823      1.00000
      2     -13.2508      1.00000
      3     -13.1731      1.00000
      4     -13.1697      1.00000
      5      -6.6641      1.00000
      6      -6.6569      1.00000
      7      -5.9427      1.00000
      8      -5.9083      1.00000
      9      -5.3818      1.00000
     10      -5.3505      1.00000
     11      -4.8693      1.00000
     12      -4.8628      1.00000
     13      -4.3097      1.00000
     14      -4.2613      1.00000
     15      -3.6072      1.00000
     16      -3.5843      1.00000
     17      -1.4271      1.00000
     18      -1.2807      1.00000
     19       0.4053      0.00000
     20       0.4068      0.00000
     21       1.5025      0.00000
     22       1.5329      0.00000
     23       1.9892      0.00000
     24       2.1319      0.00000
     25       3.3896      0.00000
     26       3.4704      0.00000

 k-point    43 :       0.3333    0.6929    0.0000
  band No.  band energies     occupation 
      1     -13.2881      1.00000
      2     -13.2569      1.00000
      3     -13.1768      1.00000
      4     -13.1733      1.00000
      5      -6.6534      1.00000
      6      -6.6462      1.00000
      7      -5.9941      1.00000
      8      -5.9615      1.00000
      9      -5.3305      1.00000
     10      -5.2998      1.00000
     11      -4.8507      1.00000
     12      -4.8469      1.00000
     13      -4.3230      1.00000
     14      -4.2766      1.00000
     15      -3.5883      1.00000
     16      -3.5675      1.00000
     17      -1.4422      1.00000
     18      -1.2978      1.00000
     19       0.4239      0.00000
     20       0.4247      0.00000
     21       1.5109      0.00000
     22       1.5405      0.00000
     23       1.9712      0.00000
     24       2.1134      0.00000
     25       3.3779      0.00000
     26       3.4578      0.00000

 k-point    44 :       0.3333    0.7060    0.0000
  band No.  band energies     occupation 
      1     -13.2978      1.00000
      2     -13.2670      1.00000
      3     -13.1827      1.00000
      4     -13.1793      1.00000
      5      -6.6358      1.00000
      6      -6.6285      1.00000
      7      -6.0618      1.00000
      8      -6.0315      1.00000
      9      -5.2674      1.00000
     10      -5.2395      1.00000
     11      -4.8159      1.00000
     12      -4.8145      1.00000
     13      -4.3434      1.00000
     14      -4.2997      1.00000
     15      -3.5590      1.00000
     16      -3.5415      1.00000
     17      -1.4662      1.00000
     18      -1.3248      1.00000
     19       0.4510      0.00000
     20       0.4552      0.00000
     21       1.5247      0.00000
     22       1.5530      0.00000
     23       1.9420      0.00000
     24       2.0832      0.00000
     25       3.3587      0.00000
     26       3.4373      0.00000

 k-point    45 :       0.3333    0.7191    0.0000
  band No.  band energies     occupation 
      1     -13.3111      1.00000
      2     -13.2810      1.00000
      3     -13.1910      1.00000
      4     -13.1876      1.00000
      5      -6.6115      1.00000
      6      -6.6041      1.00000
      7      -6.1354      1.00000
      8      -6.1074      1.00000
      9      -5.2091      1.00000
     10      -5.1865      1.00000
     11      -4.7642      1.00000
     12      -4.7548      1.00000
     13      -4.3689      1.00000
     14      -4.3281      1.00000
     15      -3.5219      1.00000
     16      -3.5080      1.00000
     17      -1.4975      1.00000
     18      -1.3599      1.00000
     19       0.4863      0.00000
     20       0.4945      0.00000
     21       1.5438      0.00000
     22       1.5699      0.00000
     23       1.9027      0.00000
     24       2.0422      0.00000
     25       3.3325      0.00000
     26       3.4092      0.00000

 k-point    46 :       0.3485    0.6218    0.0000
  band No.  band energies     occupation 
      1     -13.3100      1.00000
      2     -13.2799      1.00000
      3     -13.1908      1.00000
      4     -13.1875      1.00000
      5      -6.6117      1.00000
      6      -6.6043      1.00000
      7      -6.1539      1.00000
      8      -6.1252      1.00000
      9      -5.2237      1.00000
     10      -5.2058      1.00000
     11      -4.7282      1.00000
     12      -4.7144      1.00000
     13      -4.3671      1.00000
     14      -4.3262      1.00000
     15      -3.5252      1.00000
     16      -3.5113      1.00000
     17      -1.4953      1.00000
     18      -1.3579      1.00000
     19       0.4885      0.00000
     20       0.4974      0.00000
     21       1.5533      0.00000
     22       1.5795      0.00000
     23       1.9038      0.00000
     24       2.0438      0.00000
     25       3.3252      0.00000
     26       3.4018      0.00000

 k-point    47 :       0.3485    0.6349    0.0000
  band No.  band energies     occupation 
      1     -13.2980      1.00000
      2     -13.2673      1.00000
      3     -13.1832      1.00000
      4     -13.1798      1.00000
      5      -6.6343      1.00000
      6      -6.6270      1.00000
      7      -6.0792      1.00000
      8      -6.0485      1.00000
      9      -5.2693      1.00000
     10      -5.2453      1.00000
     11      -4.7925      1.00000
     12      -4.7875      1.00000
     13      -4.3441      1.00000
     14      -4.3006      1.00000
     15      -3.5583      1.00000
     16      -3.5411      1.00000
     17      -1.4670      1.00000
     18      -1.3260      1.00000
     19       0.4546      0.00000
     20       0.4594      0.00000
     21       1.5313      0.00000
     22       1.5595      0.00000
     23       1.9401      0.00000
     24       2.0815      0.00000
     25       3.3528      0.00000
     26       3.4312      0.00000

 k-point    48 :       0.3485    0.6480    0.0000
  band No.  band energies     occupation 
      1     -13.2893      1.00000
      2     -13.2582      1.00000
      3     -13.1776      1.00000
      4     -13.1742      1.00000
      5      -6.6507      1.00000
      6      -6.6435      1.00000
      7      -6.0117      1.00000
      8      -5.9792      1.00000
      9      -5.3209      1.00000
     10      -5.2923      1.00000
     11      -4.8357      1.00000
     12      -4.8341      1.00000
     13      -4.3258      1.00000
     14      -4.2799      1.00000
     15      -3.5844      1.00000
     16      -3.5642      1.00000
     17      -1.4454      1.00000
     18      -1.3016      1.00000
     19       0.4287      0.00000
     20       0.4302      0.00000
     21       1.5153      0.00000
     22       1.5447      0.00000
     23       1.9670      0.00000
     24       2.1092      0.00000
     25       3.3731      0.00000
     26       3.4529      0.00000

 k-point    49 :       0.3485    0.6611    0.0000
  band No.  band energies     occupation 
      1     -13.2841      1.00000
      2     -13.2527      1.00000
      3     -13.1743      1.00000
      4     -13.1709      1.00000
      5      -6.6607      1.00000
      6      -6.6535      1.00000
      7      -5.9616      1.00000
      8      -5.9278      1.00000
      9      -5.3641      1.00000
     10      -5.3331      1.00000
     11      -4.8619      1.00000
     12      -4.8564      1.00000
     13      -4.3140      1.00000
     14      -4.2662      1.00000
     15      -3.6012      1.00000
     16      -3.5790      1.00000
     17      -1.4319      1.00000
     18      -1.2862      1.00000
     19       0.4117      0.00000
     20       0.4124      0.00000
     21       1.5056      0.00000
     22       1.5357      0.00000
     23       1.9835      0.00000
     24       2.1261      0.00000
     25       3.3856      0.00000
     26       3.4660      0.00000

 k-point    50 :       0.3485    0.6742    0.0000
  band No.  band energies     occupation 
      1     -13.2824      1.00000
      2     -13.2509      1.00000
      3     -13.1732      1.00000
      4     -13.1697      1.00000
      5      -6.6640      1.00000
      6      -6.6568      1.00000
      7      -5.9425      1.00000
      8      -5.9081      1.00000
      9      -5.3814      1.00000
     10      -5.3499      1.00000
     11      -4.8700      1.00000
     12      -4.8634      1.00000
     13      -4.3099      1.00000
     14      -4.2615      1.00000
     15      -3.6070      1.00000
     16      -3.5841      1.00000
     17      -1.4273      1.00000
     18      -1.2809      1.00000
     19       0.4054      0.00000
     20       0.4068      0.00000
     21       1.5023      0.00000
     22       1.5327      0.00000
     23       1.9890      0.00000
     24       2.1318      0.00000
     25       3.3897      0.00000
     26       3.4705      0.00000

 k-point    51 :       0.3485    0.6874    0.0000
  band No.  band energies     occupation 
      1     -13.2841      1.00000
      2     -13.2527      1.00000
      3     -13.1743      1.00000
      4     -13.1709      1.00000
      5      -6.6607      1.00000
      6      -6.6535      1.00000
      7      -5.9616      1.00000
      8      -5.9278      1.00000
      9      -5.3641      1.00000
     10      -5.3331      1.00000
     11      -4.8619      1.00000
     12      -4.8564      1.00000
     13      -4.3140      1.00000
     14      -4.2662      1.00000
     15      -3.6012      1.00000
     16      -3.5790      1.00000
     17      -1.4319      1.00000
     18      -1.2862      1.00000
     19       0.4117      0.00000
     20       0.4124      0.00000
     21       1.5056      0.00000
     22       1.5357      0.00000
     23       1.9835      0.00000
     24       2.1261      0.00000
     25       3.3856      0.00000
     26       3.4660      0.00000

 k-point    52 :       0.3485    0.7005    0.0000
  band No.  band energies     occupation 
      1     -13.2893      1.00000
      2     -13.2582      1.00000
      3     -13.1776      1.00000
      4     -13.1742      1.00000
      5      -6.6507      1.00000
      6      -6.6435      1.00000
      7      -6.0117      1.00000
      8      -5.9792      1.00000
      9      -5.3209      1.00000
     10      -5.2923      1.00000
     11      -4.8357      1.00000
     12      -4.8341      1.00000
     13      -4.3258      1.00000
     14      -4.2799      1.00000
     15      -3.5844      1.00000
     16      -3.5642      1.00000
     17      -1.4454      1.00000
     18      -1.3016      1.00000
     19       0.4287      0.00000
     20       0.4302      0.00000
     21       1.5153      0.00000
     22       1.5447      0.00000
     23       1.9670      0.00000
     24       2.1092      0.00000
     25       3.3731      0.00000
     26       3.4528      0.00000

 k-point    53 :       0.3485    0.7136    0.0000
  band No.  band energies     occupation 
      1     -13.2980      1.00000
      2     -13.2673      1.00000
      3     -13.1832      1.00000
      4     -13.1798      1.00000
      5      -6.6343      1.00000
      6      -6.6270      1.00000
      7      -6.0792      1.00000
      8      -6.0485      1.00000
      9      -5.2693      1.00000
     10      -5.2453      1.00000
     11      -4.7925      1.00000
     12      -4.7875      1.00000
     13      -4.3441      1.00000
     14      -4.3006      1.00000
     15      -3.5583      1.00000
     16      -3.5411      1.00000
     17      -1.4670      1.00000
     18      -1.3260      1.00000
     19       0.4546      0.00000
     20       0.4594      0.00000
     21       1.5313      0.00000
     22       1.5595      0.00000
     23       1.9401      0.00000
     24       2.0815      0.00000
     25       3.3528      0.00000
     26       3.4312      0.00000

 k-point    54 :       0.3485    0.7267    0.0000
  band No.  band energies     occupation 
      1     -13.3100      1.00000
      2     -13.2799      1.00000
      3     -13.1908      1.00000
      4     -13.1875      1.00000
      5      -6.6117      1.00000
      6      -6.6043      1.00000
      7      -6.1539      1.00000
      8      -6.1252      1.00000
      9      -5.2237      1.00000
     10      -5.2058      1.00000
     11      -4.7282      1.00000
     12      -4.7144      1.00000
     13      -4.3671      1.00000
     14      -4.3262      1.00000
     15      -3.5252      1.00000
     16      -3.5113      1.00000
     17      -1.4953      1.00000
     18      -1.3579      1.00000
     19       0.4885      0.00000
     20       0.4974      0.00000
     21       1.5533      0.00000
     22       1.5795      0.00000
     23       1.9038      0.00000
     24       2.0438      0.00000
     25       3.3252      0.00000
     26       3.4018      0.00000

 k-point    55 :       0.3636    0.6294    0.0000
  band No.  band energies     occupation 
      1     -13.3130      1.00000
      2     -13.2832      1.00000
      3     -13.1932      1.00000
      4     -13.1899      1.00000
      5      -6.6045      1.00000
      6      -6.5971      1.00000
      7      -6.1874      1.00000
      8      -6.1588      1.00000
      9      -5.2225      1.00000
     10      -5.2089      1.00000
     11      -4.6824      1.00000
     12      -4.6638      1.00000
     13      -4.3726      1.00000
     14      -4.3323      1.00000
     15      -3.5174      1.00000
     16      -3.5046      1.00000
     17      -1.5024      1.00000
     18      -1.3662      1.00000
     19       0.5004      0.00000
     20       0.5111      0.00000
     21       1.5673      0.00000
     22       1.5927      0.00000
     23       1.8933      0.00000
     24       2.0330      0.00000
     25       3.3111      0.00000
     26       3.3870      0.00000

 k-point    56 :       0.3636    0.6425    0.0000
  band No.  band energies     occupation 
      1     -13.3024      1.00000
      2     -13.2720      1.00000
      3     -13.1862      1.00000
      4     -13.1828      1.00000
      5      -6.6254      1.00000
      6      -6.6181      1.00000
      7      -6.1157      1.00000
      8      -6.0857      1.00000
      9      -5.2516      1.00000
     10      -5.2313      1.00000
     11      -4.7591      1.00000
     12      -4.7494      1.00000
     13      -4.3530      1.00000
     14      -4.3106      1.00000
     15      -3.5457      1.00000
     16      -3.5299      1.00000
     17      -1.4778      1.00000
     18      -1.3383      1.00000
     19       0.4688      0.00000
     20       0.4755      0.00000
     21       1.5424      0.00000
     22       1.5699      0.00000
     23       1.9259      0.00000
     24       2.0669      0.00000
     25       3.3400      0.00000
     26       3.4177      0.00000

 k-point    57 :       0.3636    0.6556    0.0000
  band No.  band energies     occupation 
      1     -13.2948      1.00000
      2     -13.2639      1.00000
      3     -13.1811      1.00000
      4     -13.1777      1.00000
      5      -6.6406      1.00000
      6      -6.6333      1.00000
      7      -6.0531      1.00000
      8      -6.0219      1.00000
      9      -5.2857      1.00000
     10      -5.2593      1.00000
     11      -4.8122      1.00000
     12      -4.8102      1.00000
     13      -4.3375      1.00000
     14      -4.2931      1.00000
     15      -3.5677      1.00000
     16      -3.5494      1.00000
     17      -1.4591      1.00000
     18      -1.3170      1.00000
     19       0.4447      0.00000
     20       0.4482      0.00000
     21       1.5243      0.00000
     22       1.5530      0.00000
     23       1.9502      0.00000
     24       2.0918      0.00000
     25       3.3612      0.00000
     26       3.4401      0.00000

 k-point    58 :       0.3636    0.6687    0.0000
  band No.  band energies     occupation 
      1     -13.2902      1.00000
      2     -13.2591      1.00000
      3     -13.1780      1.00000
      4     -13.1746      1.00000
      5      -6.6497      1.00000
      6      -6.6425      1.00000
      7      -6.0086      1.00000
      8      -5.9766      1.00000
      9      -5.3150      1.00000
     10      -5.2844      1.00000
     11      -4.8455      1.00000
     12      -4.8424      1.00000
     13      -4.3275      1.00000
     14      -4.2817      1.00000
     15      -3.5818      1.00000
     16      -3.5618      1.00000
     17      -1.4474      1.00000
     18      -1.3037      1.00000
     19       0.4296      0.00000
     20       0.4311      0.00000
     21       1.5134      0.00000
     22       1.5427      0.00000
     23       1.9650      0.00000
     24       2.1070      0.00000
     25       3.3742      0.00000
     26       3.4538      0.00000

 k-point    59 :       0.3636    0.6818    0.0000
  band No.  band energies     occupation 
      1     -13.2886      1.00000
      2     -13.2575      1.00000
      3     -13.1770      1.00000
      4     -13.1736      1.00000
      5      -6.6528      1.00000
      6      -6.6456      1.00000
      7      -5.9922      1.00000
      8      -5.9599      1.00000
      9      -5.3268      1.00000
     10      -5.2948      1.00000
     11      -4.8569      1.00000
     12      -4.8521      1.00000
     13      -4.3241      1.00000
     14      -4.2778      1.00000
     15      -3.5866      1.00000
     16      -3.5660      1.00000
     17      -1.4434      1.00000
     18      -1.2991      1.00000
     19       0.4244      0.00000
     20       0.4252      0.00000
     21       1.5097      0.00000
     22       1.5393      0.00000
     23       1.9700      0.00000
     24       2.1121      0.00000
     25       3.3786      0.00000
     26       3.4585      0.00000

 k-point    60 :       0.3636    0.6949    0.0000
  band No.  band energies     occupation 
      1     -13.2902      1.00000
      2     -13.2591      1.00000
      3     -13.1780      1.00000
      4     -13.1746      1.00000
      5      -6.6497      1.00000
      6      -6.6425      1.00000
      7      -6.0086      1.00000
      8      -5.9766      1.00000
      9      -5.3150      1.00000
     10      -5.2844      1.00000
     11      -4.8455      1.00000
     12      -4.8424      1.00000
     13      -4.3275      1.00000
     14      -4.2817      1.00000
     15      -3.5818      1.00000
     16      -3.5618      1.00000
     17      -1.4474      1.00000
     18      -1.3037      1.00000
     19       0.4296      0.00000
     20       0.4311      0.00000
     21       1.5134      0.00000
     22       1.5427      0.00000
     23       1.9650      0.00000
     24       2.1070      0.00000
     25       3.3742      0.00000
     26       3.4538      0.00000

 k-point    61 :       0.3636    0.7080    0.0000
  band No.  band energies     occupation 
      1     -13.2948      1.00000
      2     -13.2639      1.00000
      3     -13.1811      1.00000
      4     -13.1777      1.00000
      5      -6.6406      1.00000
      6      -6.6333      1.00000
      7      -6.0531      1.00000
      8      -6.0219      1.00000
      9      -5.2857      1.00000
     10      -5.2593      1.00000
     11      -4.8122      1.00000
     12      -4.8102      1.00000
     13      -4.3375      1.00000
     14      -4.2931      1.00000
     15      -3.5677      1.00000
     16      -3.5494      1.00000
     17      -1.4591      1.00000
     18      -1.3170      1.00000
     19       0.4447      0.00000
     20       0.4482      0.00000
     21       1.5243      0.00000
     22       1.5530      0.00000
     23       1.9502      0.00000
     24       2.0918      0.00000
     25       3.3612      0.00000
     26       3.4401      0.00000

 k-point    62 :       0.3636    0.7212    0.0000
  band No.  band energies     occupation 
      1     -13.3024      1.00000
      2     -13.2720      1.00000
      3     -13.1862      1.00000
      4     -13.1828      1.00000
      5      -6.6254      1.00000
      6      -6.6181      1.00000
      7      -6.1157      1.00000
      8      -6.0857      1.00000
      9      -5.2516      1.00000
     10      -5.2313      1.00000
     11      -4.7591      1.00000
     12      -4.7494      1.00000
     13      -4.3530      1.00000
     14      -4.3106      1.00000
     15      -3.5457      1.00000
     16      -3.5299      1.00000
     17      -1.4778      1.00000
     18      -1.3383      1.00000
     19       0.4688      0.00000
     20       0.4755      0.00000
     21       1.5424      0.00000
     22       1.5699      0.00000
     23       1.9259      0.00000
     24       2.0669      0.00000
     25       3.3400      0.00000
     26       3.4177      0.00000

 k-point    63 :       0.3636    0.7343    0.0000
  band No.  band energies     occupation 
      1     -13.3130      1.00000
      2     -13.2832      1.00000
      3     -13.1932      1.00000
      4     -13.1899      1.00000
      5      -6.6045      1.00000
      6      -6.5971      1.00000
      7      -6.1874      1.00000
      8      -6.1588      1.00000
      9      -5.2225      1.00000
     10      -5.2089      1.00000
     11      -4.6824      1.00000
     12      -4.6638      1.00000
     13      -4.3726      1.00000
     14      -4.3323      1.00000
     15      -3.5174      1.00000
     16      -3.5046      1.00000
     17      -1.5024      1.00000
     18      -1.3662      1.00000
     19       0.5004      0.00000
     20       0.5111      0.00000
     21       1.5673      0.00000
     22       1.5927      0.00000
     23       1.8933      0.00000
     24       2.0330      0.00000
     25       3.3111      0.00000
     26       3.3870      0.00000

 k-point    64 :       0.3788    0.6369    0.0000
  band No.  band energies     occupation 
      1     -13.3206      1.00000
      2     -13.2913      1.00000
      3     -13.1982      1.00000
      4     -13.1949      1.00000
      5      -6.5897      1.00000
      6      -6.5822      1.00000
      7      -6.2306      1.00000
      8      -6.2030      1.00000
      9      -5.2094      1.00000
     10      -5.1991      1.00000
     11      -4.6283      1.00000
     12      -4.6046      1.00000
     13      -4.3855      1.00000
     14      -4.3461      1.00000
     15      -3.4986      1.00000
     16      -3.4876      1.00000
     17      -1.5192      1.00000
     18      -1.3850      1.00000
     19       0.5217      0.00000
     20       0.5350      0.00000
     21       1.5846      0.00000
     22       1.6083      0.00000
     23       1.8707      0.00000
     24       2.0091      0.00000
     25       3.2911      0.00000
     26       3.3658      0.00000

 k-point    65 :       0.3788    0.6500    0.0000
  band No.  band energies     occupation 
      1     -13.3114      1.00000
      2     -13.2815      1.00000
      3     -13.1918      1.00000
      4     -13.1885      1.00000
      5      -6.6088      1.00000
      6      -6.6013      1.00000
      7      -6.1640      1.00000
      8      -6.1355      1.00000
      9      -5.2205      1.00000
     10      -5.2037      1.00000
     11      -4.7164      1.00000
     12      -4.7013      1.00000
     13      -4.3697      1.00000
     14      -4.3291      1.00000
     15      -3.5214      1.00000
     16      -3.5080      1.00000
     17      -1.4986      1.00000
     18      -1.3616      1.00000
     19       0.4929      0.00000
     20       0.5024      0.00000
     21       1.5570      0.00000
     22       1.5829      0.00000
     23       1.8994      0.00000
     24       2.0391      0.00000
     25       3.3210      0.00000
     26       3.3973      0.00000

 k-point    66 :       0.3788    0.6632    0.0000
  band No.  band energies     occupation 
      1     -13.3048      1.00000
      2     -13.2744      1.00000
      3     -13.1872      1.00000
      4     -13.1838      1.00000
      5      -6.6226      1.00000
      6      -6.6152      1.00000
      7      -6.1080      1.00000
      8      -6.0789      1.00000
      9      -5.2350      1.00000
     10      -5.2111      1.00000
     11      -4.7816      1.00000
     12      -4.7748      1.00000
     13      -4.3573      1.00000
     14      -4.3153      1.00000
     15      -3.5389      1.00000
     16      -3.5235      1.00000
     17      -1.4831      1.00000
     18      -1.3439      1.00000
     19       0.4710      0.00000
     20       0.4776      0.00000
     21       1.5370      0.00000
     22       1.5641      0.00000
     23       1.9206      0.00000
     24       2.0610      0.00000
     25       3.3429      0.00000
     26       3.4204      0.00000

 k-point    67 :       0.3788    0.6763    0.0000
  band No.  band energies     occupation 
      1     -13.3008      1.00000
      2     -13.2702      1.00000
      3     -13.1844      1.00000
      4     -13.1810      1.00000
      5      -6.6310      1.00000
      6      -6.6236      1.00000
      7      -6.0696      1.00000
      8      -6.0402      1.00000
      9      -5.2483      1.00000
     10      -5.2186      1.00000
     11      -4.8211      1.00000
     12      -4.8206      1.00000
     13      -4.3494      1.00000
     14      -4.3064      1.00000
     15      -3.5500      1.00000
     16      -3.5333      1.00000
     17      -1.4734      1.00000
     18      -1.3328      1.00000
     19       0.4574      0.00000
     20       0.4621      0.00000
     21       1.5248      0.00000
     22       1.5526      0.00000
     23       1.9337      0.00000
     24       2.0743      0.00000
     25       3.3563      0.00000
     26       3.4346      0.00000

 k-point    68 :       0.3788    0.6894    0.0000
  band No.  band energies     occupation 
      1     -13.2995      1.00000
      2     -13.2688      1.00000
      3     -13.1835      1.00000
      4     -13.1801      1.00000
      5      -6.6338      1.00000
      6      -6.6265      1.00000
      7      -6.0559      1.00000
      8      -6.0264      1.00000
      9      -5.2538      1.00000
     10      -5.2219      1.00000
     11      -4.8361      1.00000
     12      -4.8342      1.00000
     13      -4.3467      1.00000
     14      -4.3033      1.00000
     15      -3.5538      1.00000
     16      -3.5366      1.00000
     17      -1.4701      1.00000
     18      -1.3290      1.00000
     19       0.4527      0.00000
     20       0.4568      0.00000
     21       1.5208      0.00000
     22       1.5488      0.00000
     23       1.9381      0.00000
     24       2.0788      0.00000
     25       3.3609      0.00000
     26       3.4393      0.00000

 k-point    69 :       0.3788    0.7025    0.0000
  band No.  band energies     occupation 
      1     -13.3008      1.00000
      2     -13.2702      1.00000
      3     -13.1844      1.00000
      4     -13.1810      1.00000
      5      -6.6310      1.00000
      6      -6.6236      1.00000
      7      -6.0696      1.00000
      8      -6.0402      1.00000
      9      -5.2483      1.00000
     10      -5.2186      1.00000
     11      -4.8211      1.00000
     12      -4.8206      1.00000
     13      -4.3494      1.00000
     14      -4.3064      1.00000
     15      -3.5500      1.00000
     16      -3.5333      1.00000
     17      -1.4734      1.00000
     18      -1.3328      1.00000
     19       0.4574      0.00000
     20       0.4621      0.00000
     21       1.5248      0.00000
     22       1.5526      0.00000
     23       1.9337      0.00000
     24       2.0743      0.00000
     25       3.3563      0.00000
     26       3.4346      0.00000

 k-point    70 :       0.3788    0.7156    0.0000
  band No.  band energies     occupation 
      1     -13.3048      1.00000
      2     -13.2744      1.00000
      3     -13.1872      1.00000
      4     -13.1838      1.00000
      5      -6.6226      1.00000
      6      -6.6152      1.00000
      7      -6.1080      1.00000
      8      -6.0789      1.00000
      9      -5.2350      1.00000
     10      -5.2111      1.00000
     11      -4.7816      1.00000
     12      -4.7748      1.00000
     13      -4.3573      1.00000
     14      -4.3153      1.00000
     15      -3.5389      1.00000
     16      -3.5235      1.00000
     17      -1.4831      1.00000
     18      -1.3439      1.00000
     19       0.4710      0.00000
     20       0.4776      0.00000
     21       1.5370      0.00000
     22       1.5641      0.00000
     23       1.9206      0.00000
     24       2.0610      0.00000
     25       3.3429      0.00000
     26       3.4204      0.00000

 k-point    71 :       0.3788    0.7287    0.0000
  band No.  band energies     occupation 
      1     -13.3114      1.00000
      2     -13.2815      1.00000
      3     -13.1918      1.00000
      4     -13.1885      1.00000
      5      -6.6088      1.00000
      6      -6.6013      1.00000
      7      -6.1640      1.00000
      8      -6.1355      1.00000
      9      -5.2205      1.00000
     10      -5.2037      1.00000
     11      -4.7164      1.00000
     12      -4.7013      1.00000
     13      -4.3697      1.00000
     14      -4.3291      1.00000
     15      -3.5214      1.00000
     16      -3.5080      1.00000
     17      -1.4986      1.00000
     18      -1.3616      1.00000
     19       0.4929      0.00000
     20       0.5024      0.00000
     21       1.5570      0.00000
     22       1.5829      0.00000
     23       1.8994      0.00000
     24       2.0391      0.00000
     25       3.3210      0.00000
     26       3.3974      0.00000

 k-point    72 :       0.3788    0.7418    0.0000
  band No.  band energies     occupation 
      1     -13.3206      1.00000
      2     -13.2913      1.00000
      3     -13.1982      1.00000
      4     -13.1949      1.00000
      5      -6.5897      1.00000
      6      -6.5822      1.00000
      7      -6.2306      1.00000
      8      -6.2030      1.00000
      9      -5.2094      1.00000
     10      -5.1991      1.00000
     11      -4.6283      1.00000
     12      -4.6046      1.00000
     13      -4.3855      1.00000
     14      -4.3461      1.00000
     15      -3.4985      1.00000
     16      -3.4876      1.00000
     17      -1.5192      1.00000
     18      -1.3850      1.00000
     19       0.5217      0.00000
     20       0.5350      0.00000
     21       1.5846      0.00000
     22       1.6083      0.00000
     23       1.8707      0.00000
     24       2.0091      0.00000
     25       3.2911      0.00000
     26       3.3658      0.00000

 k-point    73 :       0.3939    0.6445    0.0000
  band No.  band energies     occupation 
      1     -13.3331      1.00000
      2     -13.3043      1.00000
      3     -13.2058      1.00000
      4     -13.2026      1.00000
      5      -6.5670      1.00000
      6      -6.5594      1.00000
      7      -6.2782      1.00000
      8      -6.2524      1.00000
      9      -5.1888      1.00000
     10      -5.1810      1.00000
     11      -4.5674      1.00000
     12      -4.5379      1.00000
     13      -4.4046      1.00000
     14      -4.3659      1.00000
     15      -3.4695      1.00000
     16      -3.4610      1.00000
     17      -1.5451      1.00000
     18      -1.4138      1.00000
     19       0.5509      0.00000
     20       0.5673      0.00000
     21       1.6042      0.00000
     22       1.6245      0.00000
     23       1.8369      0.00000
     24       1.9723      0.00000
     25       3.2662      0.00000
     26       3.3389      0.00000

 k-point    74 :       0.3939    0.6576    0.0000
  band No.  band energies     occupation 
      1     -13.3253      1.00000
      2     -13.2960      1.00000
      3     -13.2002      1.00000
      4     -13.1969      1.00000
      5      -6.5841      1.00000
      6      -6.5766      1.00000
      7      -6.2172      1.00000
      8      -6.1909      1.00000
      9      -5.1832      1.00000
     10      -5.1694      1.00000
     11      -4.6646      1.00000
     12      -4.6435      1.00000
     13      -4.3928      1.00000
     14      -4.3541      1.00000
     15      -3.4867      1.00000
     16      -3.4762      1.00000
     17      -1.5288      1.00000
     18      -1.3950      1.00000
     19       0.5253      0.00000
     20       0.5381      0.00000
     21       1.5740      0.00000
     22       1.5972      0.00000
     23       1.8609      0.00000
     24       1.9982      0.00000
     25       3.2968      0.00000
     26       3.3711      0.00000

 k-point    75 :       0.3939    0.6707    0.0000
  band No.  band energies     occupation 
      1     -13.3197      1.00000
      2     -13.2899      1.00000
      3     -13.1960      1.00000
      4     -13.1927      1.00000
      5      -6.5966      1.00000
      6      -6.5891      1.00000
      7      -6.1674      1.00000
      8      -6.1408      1.00000
      9      -5.1788      1.00000
     10      -5.1579      1.00000
     11      -4.7413      1.00000
     12      -4.7285      1.00000
     13      -4.3837      1.00000
     14      -4.3443      1.00000
     15      -3.4998      1.00000
     16      -3.4877      1.00000
     17      -1.5165      1.00000
     18      -1.3809      1.00000
     19       0.5059      0.00000
     20       0.5161      0.00000
     21       1.5521      0.00000
     22       1.5768      0.00000
     23       1.8790      0.00000
     24       2.0170      0.00000
     25       3.3192      0.00000
     26       3.3947      0.00000

 k-point    76 :       0.3939    0.6838    0.0000
  band No.  band energies     occupation 
      1     -13.3164      1.00000
      2     -13.2863      1.00000
      3     -13.1936      1.00000
      4     -13.1902      1.00000
      5      -6.6041      1.00000
      6      -6.5966      1.00000
      7      -6.1342      1.00000
      8      -6.1077      1.00000
      9      -5.1759      1.00000
     10      -5.1484      1.00000
     11      -4.7911      1.00000
     12      -4.7853      1.00000
     13      -4.3779      1.00000
     14      -4.3379      1.00000
     15      -3.5079      1.00000
     16      -3.4949      1.00000
     17      -1.5090      1.00000
     18      -1.3722      1.00000
     19       0.4939      0.00000
     20       0.5024      0.00000
     21       1.5388      0.00000
     22       1.5643      0.00000
     23       1.8901      0.00000
     24       2.0285      0.00000
     25       3.3329      0.00000
     26       3.4090      0.00000

 k-point    77 :       0.3939    0.6970    0.0000
  band No.  band energies     occupation 
      1     -13.3152      1.00000
      2     -13.2851      1.00000
      3     -13.1927      1.00000
      4     -13.1894      1.00000
      5      -6.6067      1.00000
      6      -6.5992      1.00000
      7      -6.1225      1.00000
      8      -6.0960      1.00000
      9      -5.1749      1.00000
     10      -5.1444      1.00000
     11      -4.8084      1.00000
     12      -4.8056      1.00000
     13      -4.3760      1.00000
     14      -4.3357      1.00000
     15      -3.5107      1.00000
     16      -3.4974      1.00000
     17      -1.5064      1.00000
     18      -1.3692      1.00000
     19       0.4898      0.00000
     20       0.4978      0.00000
     21       1.5344      0.00000
     22       1.5600      0.00000
     23       1.8939      0.00000
     24       2.0323      0.00000
     25       3.3375      0.00000
     26       3.4139      0.00000

 k-point    78 :       0.3939    0.7101    0.0000
  band No.  band energies     occupation 
      1     -13.3164      1.00000
      2     -13.2863      1.00000
      3     -13.1936      1.00000
      4     -13.1902      1.00000
      5      -6.6041      1.00000
      6      -6.5966      1.00000
      7      -6.1342      1.00000
      8      -6.1077      1.00000
      9      -5.1759      1.00000
     10      -5.1484      1.00000
     11      -4.7911      1.00000
     12      -4.7853      1.00000
     13      -4.3779      1.00000
     14      -4.3379      1.00000
     15      -3.5079      1.00000
     16      -3.4949      1.00000
     17      -1.5090      1.00000
     18      -1.3722      1.00000
     19       0.4939      0.00000
     20       0.5024      0.00000
     21       1.5388      0.00000
     22       1.5643      0.00000
     23       1.8901      0.00000
     24       2.0285      0.00000
     25       3.3329      0.00000
     26       3.4091      0.00000

 k-point    79 :       0.3939    0.7232    0.0000
  band No.  band energies     occupation 
      1     -13.3197      1.00000
      2     -13.2899      1.00000
      3     -13.1960      1.00000
      4     -13.1927      1.00000
      5      -6.5966      1.00000
      6      -6.5891      1.00000
      7      -6.1674      1.00000
      8      -6.1408      1.00000
      9      -5.1788      1.00000
     10      -5.1579      1.00000
     11      -4.7413      1.00000
     12      -4.7285      1.00000
     13      -4.3837      1.00000
     14      -4.3443      1.00000
     15      -3.4998      1.00000
     16      -3.4877      1.00000
     17      -1.5165      1.00000
     18      -1.3809      1.00000
     19       0.5059      0.00000
     20       0.5161      0.00000
     21       1.5521      0.00000
     22       1.5768      0.00000
     23       1.8790      0.00000
     24       2.0170      0.00000
     25       3.3192      0.00000
     26       3.3947      0.00000

 k-point    80 :       0.3939    0.7363    0.0000
  band No.  band energies     occupation 
      1     -13.3253      1.00000
      2     -13.2960      1.00000
      3     -13.2002      1.00000
      4     -13.1969      1.00000
      5      -6.5841      1.00000
      6      -6.5766      1.00000
      7      -6.2172      1.00000
      8      -6.1909      1.00000
      9      -5.1832      1.00000
     10      -5.1694      1.00000
     11      -4.6646      1.00000
     12      -4.6435      1.00000
     13      -4.3928      1.00000
     14      -4.3541      1.00000
     15      -3.4867      1.00000
     16      -3.4762      1.00000
     17      -1.5288      1.00000
     18      -1.3950      1.00000
     19       0.5253      0.00000
     20       0.5381      0.00000
     21       1.5740      0.00000
     22       1.5972      0.00000
     23       1.8609      0.00000
     24       1.9982      0.00000
     25       3.2968      0.00000
     26       3.3711      0.00000

 k-point    81 :       0.3939    0.7494    0.0000
  band No.  band energies     occupation 
      1     -13.3331      1.00000
      2     -13.3043      1.00000
      3     -13.2058      1.00000
      4     -13.2026      1.00000
      5      -6.5670      1.00000
      6      -6.5594      1.00000
      7      -6.2782      1.00000
      8      -6.2524      1.00000
      9      -5.1888      1.00000
     10      -5.1810      1.00000
     11      -4.5674      1.00000
     12      -4.5379      1.00000
     13      -4.4046      1.00000
     14      -4.3659      1.00000
     15      -3.4695      1.00000
     16      -3.4610      1.00000
     17      -1.5451      1.00000
     18      -1.4138      1.00000
     19       0.5509      0.00000
     20       0.5673      0.00000
     21       1.6042      0.00000
     22       1.6245      0.00000
     23       1.8369      0.00000
     24       1.9723      0.00000
     25       3.2662      0.00000
     26       3.3389      0.00000

 k-point    82 :      -0.3939   -0.7494    0.0000
  band No.  band energies     occupation 
      1     -13.3331      1.00000
      2     -13.3043      1.00000
      3     -13.2058      1.00000
      4     -13.2026      1.00000
      5      -6.5670      1.00000
      6      -6.5594      1.00000
      7      -6.2782      1.00000
      8      -6.2524      1.00000
      9      -5.1888      1.00000
     10      -5.1810      1.00000
     11      -4.5674      1.00000
     12      -4.5379      1.00000
     13      -4.4046      1.00000
     14      -4.3659      1.00000
     15      -3.4695      1.00000
     16      -3.4610      1.00000
     17      -1.5451      1.00000
     18      -1.4138      1.00000
     19       0.5509      0.00000
     20       0.5673      0.00000
     21       1.6042      0.00000
     22       1.6245      0.00000
     23       1.8369      0.00000
     24       1.9723      0.00000
     25       3.2662      0.00000
     26       3.3389      0.00000

 k-point    83 :      -0.3939   -0.7363    0.0000
  band No.  band energies     occupation 
      1     -13.3253      1.00000
      2     -13.2960      1.00000
      3     -13.2002      1.00000
      4     -13.1969      1.00000
      5      -6.5841      1.00000
      6      -6.5766      1.00000
      7      -6.2172      1.00000
      8      -6.1909      1.00000
      9      -5.1832      1.00000
     10      -5.1694      1.00000
     11      -4.6646      1.00000
     12      -4.6435      1.00000
     13      -4.3928      1.00000
     14      -4.3541      1.00000
     15      -3.4867      1.00000
     16      -3.4762      1.00000
     17      -1.5288      1.00000
     18      -1.3950      1.00000
     19       0.5253      0.00000
     20       0.5381      0.00000
     21       1.5740      0.00000
     22       1.5972      0.00000
     23       1.8609      0.00000
     24       1.9982      0.00000
     25       3.2968      0.00000
     26       3.3711      0.00000

 k-point    84 :      -0.3939   -0.7232    0.0000
  band No.  band energies     occupation 
      1     -13.3197      1.00000
      2     -13.2899      1.00000
      3     -13.1960      1.00000
      4     -13.1927      1.00000
      5      -6.5966      1.00000
      6      -6.5891      1.00000
      7      -6.1674      1.00000
      8      -6.1408      1.00000
      9      -5.1788      1.00000
     10      -5.1579      1.00000
     11      -4.7413      1.00000
     12      -4.7285      1.00000
     13      -4.3837      1.00000
     14      -4.3443      1.00000
     15      -3.4998      1.00000
     16      -3.4877      1.00000
     17      -1.5165      1.00000
     18      -1.3809      1.00000
     19       0.5059      0.00000
     20       0.5161      0.00000
     21       1.5521      0.00000
     22       1.5768      0.00000
     23       1.8790      0.00000
     24       2.0170      0.00000
     25       3.3192      0.00000
     26       3.3947      0.00000

 k-point    85 :      -0.3939   -0.7101    0.0000
  band No.  band energies     occupation 
      1     -13.3164      1.00000
      2     -13.2863      1.00000
      3     -13.1936      1.00000
      4     -13.1902      1.00000
      5      -6.6041      1.00000
      6      -6.5966      1.00000
      7      -6.1342      1.00000
      8      -6.1077      1.00000
      9      -5.1759      1.00000
     10      -5.1484      1.00000
     11      -4.7911      1.00000
     12      -4.7853      1.00000
     13      -4.3779      1.00000
     14      -4.3379      1.00000
     15      -3.5079      1.00000
     16      -3.4949      1.00000
     17      -1.5090      1.00000
     18      -1.3722      1.00000
     19       0.4939      0.00000
     20       0.5024      0.00000
     21       1.5388      0.00000
     22       1.5643      0.00000
     23       1.8901      0.00000
     24       2.0285      0.00000
     25       3.3329      0.00000
     26       3.4090      0.00000

 k-point    86 :      -0.3939   -0.6970    0.0000
  band No.  band energies     occupation 
      1     -13.3152      1.00000
      2     -13.2851      1.00000
      3     -13.1927      1.00000
      4     -13.1894      1.00000
      5      -6.6067      1.00000
      6      -6.5992      1.00000
      7      -6.1225      1.00000
      8      -6.0960      1.00000
      9      -5.1749      1.00000
     10      -5.1444      1.00000
     11      -4.8084      1.00000
     12      -4.8056      1.00000
     13      -4.3760      1.00000
     14      -4.3357      1.00000
     15      -3.5107      1.00000
     16      -3.4974      1.00000
     17      -1.5064      1.00000
     18      -1.3692      1.00000
     19       0.4898      0.00000
     20       0.4978      0.00000
     21       1.5344      0.00000
     22       1.5600      0.00000
     23       1.8939      0.00000
     24       2.0323      0.00000
     25       3.3375      0.00000
     26       3.4139      0.00000

 k-point    87 :      -0.3939   -0.6838    0.0000
  band No.  band energies     occupation 
      1     -13.3164      1.00000
      2     -13.2863      1.00000
      3     -13.1936      1.00000
      4     -13.1902      1.00000
      5      -6.6041      1.00000
      6      -6.5966      1.00000
      7      -6.1342      1.00000
      8      -6.1077      1.00000
      9      -5.1759      1.00000
     10      -5.1484      1.00000
     11      -4.7911      1.00000
     12      -4.7853      1.00000
     13      -4.3779      1.00000
     14      -4.3379      1.00000
     15      -3.5079      1.00000
     16      -3.4949      1.00000
     17      -1.5090      1.00000
     18      -1.3722      1.00000
     19       0.4939      0.00000
     20       0.5024      0.00000
     21       1.5388      0.00000
     22       1.5643      0.00000
     23       1.8901      0.00000
     24       2.0285      0.00000
     25       3.3329      0.00000
     26       3.4090      0.00000

 k-point    88 :      -0.3939   -0.6707    0.0000
  band No.  band energies     occupation 
      1     -13.3197      1.00000
      2     -13.2899      1.00000
      3     -13.1960      1.00000
      4     -13.1927      1.00000
      5      -6.5966      1.00000
      6      -6.5891      1.00000
      7      -6.1674      1.00000
      8      -6.1408      1.00000
      9      -5.1788      1.00000
     10      -5.1579      1.00000
     11      -4.7413      1.00000
     12      -4.7285      1.00000
     13      -4.3837      1.00000
     14      -4.3443      1.00000
     15      -3.4998      1.00000
     16      -3.4877      1.00000
     17      -1.5165      1.00000
     18      -1.3809      1.00000
     19       0.5059      0.00000
     20       0.5161      0.00000
     21       1.5521      0.00000
     22       1.5768      0.00000
     23       1.8790      0.00000
     24       2.0170      0.00000
     25       3.3192      0.00000
     26       3.3947      0.00000

 k-point    89 :      -0.3939   -0.6576    0.0000
  band No.  band energies     occupation 
      1     -13.3253      1.00000
      2     -13.2960      1.00000
      3     -13.2002      1.00000
      4     -13.1969      1.00000
      5      -6.5841      1.00000
      6      -6.5766      1.00000
      7      -6.2172      1.00000
      8      -6.1909      1.00000
      9      -5.1832      1.00000
     10      -5.1694      1.00000
     11      -4.6646      1.00000
     12      -4.6435      1.00000
     13      -4.3928      1.00000
     14      -4.3541      1.00000
     15      -3.4867      1.00000
     16      -3.4762      1.00000
     17      -1.5288      1.00000
     18      -1.3950      1.00000
     19       0.5253      0.00000
     20       0.5381      0.00000
     21       1.5740      0.00000
     22       1.5972      0.00000
     23       1.8609      0.00000
     24       1.9982      0.00000
     25       3.2968      0.00000
     26       3.3711      0.00000

 k-point    90 :      -0.3939   -0.6445    0.0000
  band No.  band energies     occupation 
      1     -13.3331      1.00000
      2     -13.3043      1.00000
      3     -13.2058      1.00000
      4     -13.2026      1.00000
      5      -6.5670      1.00000
      6      -6.5594      1.00000
      7      -6.2782      1.00000
      8      -6.2524      1.00000
      9      -5.1888      1.00000
     10      -5.1810      1.00000
     11      -4.5674      1.00000
     12      -4.5379      1.00000
     13      -4.4046      1.00000
     14      -4.3659      1.00000
     15      -3.4695      1.00000
     16      -3.4610      1.00000
     17      -1.5451      1.00000
     18      -1.4138      1.00000
     19       0.5509      0.00000
     20       0.5673      0.00000
     21       1.6042      0.00000
     22       1.6245      0.00000
     23       1.8369      0.00000
     24       1.9723      0.00000
     25       3.2662      0.00000
     26       3.3389      0.00000

 k-point    91 :      -0.3788   -0.7418    0.0000
  band No.  band energies     occupation 
      1     -13.3206      1.00000
      2     -13.2913      1.00000
      3     -13.1982      1.00000
      4     -13.1949      1.00000
      5      -6.5897      1.00000
      6      -6.5822      1.00000
      7      -6.2306      1.00000
      8      -6.2030      1.00000
      9      -5.2094      1.00000
     10      -5.1991      1.00000
     11      -4.6283      1.00000
     12      -4.6046      1.00000
     13      -4.3855      1.00000
     14      -4.3461      1.00000
     15      -3.4985      1.00000
     16      -3.4876      1.00000
     17      -1.5192      1.00000
     18      -1.3850      1.00000
     19       0.5217      0.00000
     20       0.5350      0.00000
     21       1.5846      0.00000
     22       1.6083      0.00000
     23       1.8707      0.00000
     24       2.0091      0.00000
     25       3.2911      0.00000
     26       3.3658      0.00000

 k-point    92 :      -0.3788   -0.7287    0.0000
  band No.  band energies     occupation 
      1     -13.3114      1.00000
      2     -13.2815      1.00000
      3     -13.1918      1.00000
      4     -13.1885      1.00000
      5      -6.6088      1.00000
      6      -6.6013      1.00000
      7      -6.1640      1.00000
      8      -6.1355      1.00000
      9      -5.2205      1.00000
     10      -5.2037      1.00000
     11      -4.7164      1.00000
     12      -4.7013      1.00000
     13      -4.3697      1.00000
     14      -4.3291      1.00000
     15      -3.5214      1.00000
     16      -3.5080      1.00000
     17      -1.4986      1.00000
     18      -1.3616      1.00000
     19       0.4929      0.00000
     20       0.5024      0.00000
     21       1.5570      0.00000
     22       1.5829      0.00000
     23       1.8994      0.00000
     24       2.0391      0.00000
     25       3.3210      0.00000
     26       3.3973      0.00000

 k-point    93 :      -0.3788   -0.7156    0.0000
  band No.  band energies     occupation 
      1     -13.3048      1.00000
      2     -13.2744      1.00000
      3     -13.1872      1.00000
      4     -13.1838      1.00000
      5      -6.6226      1.00000
      6      -6.6152      1.00000
      7      -6.1080      1.00000
      8      -6.0789      1.00000
      9      -5.2350      1.00000
     10      -5.2111      1.00000
     11      -4.7816      1.00000
     12      -4.7748      1.00000
     13      -4.3573      1.00000
     14      -4.3153      1.00000
     15      -3.5389      1.00000
     16      -3.5235      1.00000
     17      -1.4831      1.00000
     18      -1.3439      1.00000
     19       0.4710      0.00000
     20       0.4776      0.00000
     21       1.5370      0.00000
     22       1.5641      0.00000
     23       1.9206      0.00000
     24       2.0610      0.00000
     25       3.3429      0.00000
     26       3.4204      0.00000

 k-point    94 :      -0.3788   -0.7025    0.0000
  band No.  band energies     occupation 
      1     -13.3008      1.00000
      2     -13.2702      1.00000
      3     -13.1844      1.00000
      4     -13.1810      1.00000
      5      -6.6310      1.00000
      6      -6.6236      1.00000
      7      -6.0696      1.00000
      8      -6.0402      1.00000
      9      -5.2483      1.00000
     10      -5.2186      1.00000
     11      -4.8211      1.00000
     12      -4.8206      1.00000
     13      -4.3494      1.00000
     14      -4.3064      1.00000
     15      -3.5500      1.00000
     16      -3.5333      1.00000
     17      -1.4734      1.00000
     18      -1.3328      1.00000
     19       0.4574      0.00000
     20       0.4621      0.00000
     21       1.5248      0.00000
     22       1.5526      0.00000
     23       1.9337      0.00000
     24       2.0743      0.00000
     25       3.3563      0.00000
     26       3.4346      0.00000

 k-point    95 :      -0.3788   -0.6894    0.0000
  band No.  band energies     occupation 
      1     -13.2995      1.00000
      2     -13.2688      1.00000
      3     -13.1835      1.00000
      4     -13.1801      1.00000
      5      -6.6338      1.00000
      6      -6.6265      1.00000
      7      -6.0559      1.00000
      8      -6.0264      1.00000
      9      -5.2538      1.00000
     10      -5.2219      1.00000
     11      -4.8361      1.00000
     12      -4.8342      1.00000
     13      -4.3467      1.00000
     14      -4.3033      1.00000
     15      -3.5538      1.00000
     16      -3.5366      1.00000
     17      -1.4701      1.00000
     18      -1.3290      1.00000
     19       0.4527      0.00000
     20       0.4568      0.00000
     21       1.5208      0.00000
     22       1.5488      0.00000
     23       1.9381      0.00000
     24       2.0788      0.00000
     25       3.3608      0.00000
     26       3.4393      0.00000

 k-point    96 :      -0.3788   -0.6763    0.0000
  band No.  band energies     occupation 
      1     -13.3008      1.00000
      2     -13.2702      1.00000
      3     -13.1844      1.00000
      4     -13.1810      1.00000
      5      -6.6310      1.00000
      6      -6.6236      1.00000
      7      -6.0696      1.00000
      8      -6.0402      1.00000
      9      -5.2483      1.00000
     10      -5.2186      1.00000
     11      -4.8211      1.00000
     12      -4.8206      1.00000
     13      -4.3494      1.00000
     14      -4.3064      1.00000
     15      -3.5500      1.00000
     16      -3.5333      1.00000
     17      -1.4734      1.00000
     18      -1.3328      1.00000
     19       0.4574      0.00000
     20       0.4621      0.00000
     21       1.5248      0.00000
     22       1.5526      0.00000
     23       1.9337      0.00000
     24       2.0743      0.00000
     25       3.3563      0.00000
     26       3.4346      0.00000

 k-point    97 :      -0.3788   -0.6632    0.0000
  band No.  band energies     occupation 
      1     -13.3048      1.00000
      2     -13.2744      1.00000
      3     -13.1872      1.00000
      4     -13.1838      1.00000
      5      -6.6226      1.00000
      6      -6.6152      1.00000
      7      -6.1080      1.00000
      8      -6.0789      1.00000
      9      -5.2350      1.00000
     10      -5.2111      1.00000
     11      -4.7816      1.00000
     12      -4.7748      1.00000
     13      -4.3573      1.00000
     14      -4.3153      1.00000
     15      -3.5389      1.00000
     16      -3.5235      1.00000
     17      -1.4831      1.00000
     18      -1.3439      1.00000
     19       0.4710      0.00000
     20       0.4776      0.00000
     21       1.5370      0.00000
     22       1.5641      0.00000
     23       1.9206      0.00000
     24       2.0610      0.00000
     25       3.3429      0.00000
     26       3.4204      0.00000

 k-point    98 :      -0.3788   -0.6500    0.0000
  band No.  band energies     occupation 
      1     -13.3114      1.00000
      2     -13.2815      1.00000
      3     -13.1918      1.00000
      4     -13.1885      1.00000
      5      -6.6088      1.00000
      6      -6.6013      1.00000
      7      -6.1640      1.00000
      8      -6.1355      1.00000
      9      -5.2205      1.00000
     10      -5.2037      1.00000
     11      -4.7164      1.00000
     12      -4.7013      1.00000
     13      -4.3697      1.00000
     14      -4.3291      1.00000
     15      -3.5214      1.00000
     16      -3.5080      1.00000
     17      -1.4986      1.00000
     18      -1.3616      1.00000
     19       0.4929      0.00000
     20       0.5024      0.00000
     21       1.5570      0.00000
     22       1.5829      0.00000
     23       1.8994      0.00000
     24       2.0391      0.00000
     25       3.3210      0.00000
     26       3.3973      0.00000

 k-point    99 :      -0.3788   -0.6369    0.0000
  band No.  band energies     occupation 
      1     -13.3206      1.00000
      2     -13.2913      1.00000
      3     -13.1982      1.00000
      4     -13.1949      1.00000
      5      -6.5897      1.00000
      6      -6.5822      1.00000
      7      -6.2306      1.00000
      8      -6.2030      1.00000
      9      -5.2094      1.00000
     10      -5.1991      1.00000
     11      -4.6283      1.00000
     12      -4.6046      1.00000
     13      -4.3855      1.00000
     14      -4.3461      1.00000
     15      -3.4986      1.00000
     16      -3.4876      1.00000
     17      -1.5192      1.00000
     18      -1.3850      1.00000
     19       0.5217      0.00000
     20       0.5350      0.00000
     21       1.5846      0.00000
     22       1.6083      0.00000
     23       1.8707      0.00000
     24       2.0091      0.00000
     25       3.2911      0.00000
     26       3.3658      0.00000

 k-point   100 :      -0.3636   -0.7343    0.0000
  band No.  band energies     occupation 
      1     -13.3130      1.00000
      2     -13.2832      1.00000
      3     -13.1932      1.00000
      4     -13.1899      1.00000
      5      -6.6045      1.00000
      6      -6.5971      1.00000
      7      -6.1874      1.00000
      8      -6.1588      1.00000
      9      -5.2225      1.00000
     10      -5.2089      1.00000
     11      -4.6824      1.00000
     12      -4.6638      1.00000
     13      -4.3726      1.00000
     14      -4.3323      1.00000
     15      -3.5174      1.00000
     16      -3.5046      1.00000
     17      -1.5024      1.00000
     18      -1.3662      1.00000
     19       0.5004      0.00000
     20       0.5111      0.00000
     21       1.5673      0.00000
     22       1.5927      0.00000
     23       1.8933      0.00000
     24       2.0330      0.00000
     25       3.3111      0.00000
     26       3.3870      0.00000

 k-point   101 :      -0.3636   -0.7212    0.0000
  band No.  band energies     occupation 
      1     -13.3024      1.00000
      2     -13.2720      1.00000
      3     -13.1862      1.00000
      4     -13.1828      1.00000
      5      -6.6254      1.00000
      6      -6.6181      1.00000
      7      -6.1157      1.00000
      8      -6.0857      1.00000
      9      -5.2516      1.00000
     10      -5.2313      1.00000
     11      -4.7591      1.00000
     12      -4.7494      1.00000
     13      -4.3530      1.00000
     14      -4.3106      1.00000
     15      -3.5457      1.00000
     16      -3.5299      1.00000
     17      -1.4778      1.00000
     18      -1.3383      1.00000
     19       0.4688      0.00000
     20       0.4755      0.00000
     21       1.5424      0.00000
     22       1.5699      0.00000
     23       1.9259      0.00000
     24       2.0669      0.00000
     25       3.3400      0.00000
     26       3.4177      0.00000

 k-point   102 :      -0.3636   -0.7080    0.0000
  band No.  band energies     occupation 
      1     -13.2948      1.00000
      2     -13.2639      1.00000
      3     -13.1811      1.00000
      4     -13.1777      1.00000
      5      -6.6406      1.00000
      6      -6.6333      1.00000
      7      -6.0531      1.00000
      8      -6.0219      1.00000
      9      -5.2857      1.00000
     10      -5.2593      1.00000
     11      -4.8122      1.00000
     12      -4.8102      1.00000
     13      -4.3375      1.00000
     14      -4.2931      1.00000
     15      -3.5677      1.00000
     16      -3.5494      1.00000
     17      -1.4591      1.00000
     18      -1.3170      1.00000
     19       0.4447      0.00000
     20       0.4482      0.00000
     21       1.5243      0.00000
     22       1.5530      0.00000
     23       1.9502      0.00000
     24       2.0918      0.00000
     25       3.3612      0.00000
     26       3.4401      0.00000

 k-point   103 :      -0.3636   -0.6949    0.0000
  band No.  band energies     occupation 
      1     -13.2902      1.00000
      2     -13.2591      1.00000
      3     -13.1780      1.00000
      4     -13.1746      1.00000
      5      -6.6497      1.00000
      6      -6.6425      1.00000
      7      -6.0086      1.00000
      8      -5.9766      1.00000
      9      -5.3150      1.00000
     10      -5.2844      1.00000
     11      -4.8455      1.00000
     12      -4.8424      1.00000
     13      -4.3275      1.00000
     14      -4.2817      1.00000
     15      -3.5818      1.00000
     16      -3.5618      1.00000
     17      -1.4474      1.00000
     18      -1.3037      1.00000
     19       0.4296      0.00000
     20       0.4311      0.00000
     21       1.5134      0.00000
     22       1.5427      0.00000
     23       1.9650      0.00000
     24       2.1070      0.00000
     25       3.3742      0.00000
     26       3.4538      0.00000

 k-point   104 :      -0.3636   -0.6818    0.0000
  band No.  band energies     occupation 
      1     -13.2886      1.00000
      2     -13.2575      1.00000
      3     -13.1770      1.00000
      4     -13.1736      1.00000
      5      -6.6528      1.00000
      6      -6.6456      1.00000
      7      -5.9922      1.00000
      8      -5.9599      1.00000
      9      -5.3268      1.00000
     10      -5.2948      1.00000
     11      -4.8569      1.00000
     12      -4.8521      1.00000
     13      -4.3241      1.00000
     14      -4.2778      1.00000
     15      -3.5866      1.00000
     16      -3.5660      1.00000
     17      -1.4434      1.00000
     18      -1.2991      1.00000
     19       0.4244      0.00000
     20       0.4252      0.00000
     21       1.5097      0.00000
     22       1.5393      0.00000
     23       1.9700      0.00000
     24       2.1121      0.00000
     25       3.3786      0.00000
     26       3.4585      0.00000

 k-point   105 :      -0.3636   -0.6687    0.0000
  band No.  band energies     occupation 
      1     -13.2902      1.00000
      2     -13.2591      1.00000
      3     -13.1780      1.00000
      4     -13.1746      1.00000
      5      -6.6497      1.00000
      6      -6.6425      1.00000
      7      -6.0086      1.00000
      8      -5.9766      1.00000
      9      -5.3150      1.00000
     10      -5.2844      1.00000
     11      -4.8455      1.00000
     12      -4.8424      1.00000
     13      -4.3275      1.00000
     14      -4.2817      1.00000
     15      -3.5818      1.00000
     16      -3.5618      1.00000
     17      -1.4474      1.00000
     18      -1.3037      1.00000
     19       0.4296      0.00000
     20       0.4311      0.00000
     21       1.5134      0.00000
     22       1.5427      0.00000
     23       1.9650      0.00000
     24       2.1070      0.00000
     25       3.3743      0.00000
     26       3.4539      0.00000

 k-point   106 :      -0.3636   -0.6556    0.0000
  band No.  band energies     occupation 
      1     -13.2948      1.00000
      2     -13.2639      1.00000
      3     -13.1811      1.00000
      4     -13.1777      1.00000
      5      -6.6406      1.00000
      6      -6.6333      1.00000
      7      -6.0531      1.00000
      8      -6.0219      1.00000
      9      -5.2857      1.00000
     10      -5.2593      1.00000
     11      -4.8122      1.00000
     12      -4.8102      1.00000
     13      -4.3375      1.00000
     14      -4.2931      1.00000
     15      -3.5677      1.00000
     16      -3.5494      1.00000
     17      -1.4591      1.00000
     18      -1.3170      1.00000
     19       0.4447      0.00000
     20       0.4482      0.00000
     21       1.5243      0.00000
     22       1.5530      0.00000
     23       1.9502      0.00000
     24       2.0918      0.00000
     25       3.3612      0.00000
     26       3.4401      0.00000

 k-point   107 :      -0.3636   -0.6425    0.0000
  band No.  band energies     occupation 
      1     -13.3024      1.00000
      2     -13.2720      1.00000
      3     -13.1862      1.00000
      4     -13.1828      1.00000
      5      -6.6254      1.00000
      6      -6.6181      1.00000
      7      -6.1157      1.00000
      8      -6.0857      1.00000
      9      -5.2516      1.00000
     10      -5.2313      1.00000
     11      -4.7591      1.00000
     12      -4.7494      1.00000
     13      -4.3530      1.00000
     14      -4.3106      1.00000
     15      -3.5457      1.00000
     16      -3.5299      1.00000
     17      -1.4778      1.00000
     18      -1.3383      1.00000
     19       0.4688      0.00000
     20       0.4755      0.00000
     21       1.5424      0.00000
     22       1.5699      0.00000
     23       1.9259      0.00000
     24       2.0669      0.00000
     25       3.3400      0.00000
     26       3.4177      0.00000

 k-point   108 :      -0.3636   -0.6294    0.0000
  band No.  band energies     occupation 
      1     -13.3130      1.00000
      2     -13.2832      1.00000
      3     -13.1932      1.00000
      4     -13.1899      1.00000
      5      -6.6045      1.00000
      6      -6.5971      1.00000
      7      -6.1874      1.00000
      8      -6.1588      1.00000
      9      -5.2225      1.00000
     10      -5.2089      1.00000
     11      -4.6824      1.00000
     12      -4.6638      1.00000
     13      -4.3726      1.00000
     14      -4.3323      1.00000
     15      -3.5174      1.00000
     16      -3.5046      1.00000
     17      -1.5024      1.00000
     18      -1.3662      1.00000
     19       0.5004      0.00000
     20       0.5111      0.00000
     21       1.5673      0.00000
     22       1.5927      0.00000
     23       1.8933      0.00000
     24       2.0330      0.00000
     25       3.3111      0.00000
     26       3.3870      0.00000

 k-point   109 :      -0.3485   -0.7267    0.0000
  band No.  band energies     occupation 
      1     -13.3100      1.00000
      2     -13.2799      1.00000
      3     -13.1908      1.00000
      4     -13.1875      1.00000
      5      -6.6117      1.00000
      6      -6.6043      1.00000
      7      -6.1539      1.00000
      8      -6.1252      1.00000
      9      -5.2237      1.00000
     10      -5.2058      1.00000
     11      -4.7282      1.00000
     12      -4.7144      1.00000
     13      -4.3671      1.00000
     14      -4.3262      1.00000
     15      -3.5252      1.00000
     16      -3.5113      1.00000
     17      -1.4953      1.00000
     18      -1.3579      1.00000
     19       0.4885      0.00000
     20       0.4974      0.00000
     21       1.5533      0.00000
     22       1.5795      0.00000
     23       1.9038      0.00000
     24       2.0438      0.00000
     25       3.3252      0.00000
     26       3.4018      0.00000

 k-point   110 :      -0.3485   -0.7136    0.0000
  band No.  band energies     occupation 
      1     -13.2980      1.00000
      2     -13.2673      1.00000
      3     -13.1832      1.00000
      4     -13.1798      1.00000
      5      -6.6343      1.00000
      6      -6.6270      1.00000
      7      -6.0792      1.00000
      8      -6.0485      1.00000
      9      -5.2693      1.00000
     10      -5.2453      1.00000
     11      -4.7925      1.00000
     12      -4.7875      1.00000
     13      -4.3441      1.00000
     14      -4.3006      1.00000
     15      -3.5583      1.00000
     16      -3.5411      1.00000
     17      -1.4670      1.00000
     18      -1.3260      1.00000
     19       0.4546      0.00000
     20       0.4594      0.00000
     21       1.5313      0.00000
     22       1.5595      0.00000
     23       1.9401      0.00000
     24       2.0815      0.00000
     25       3.3528      0.00000
     26       3.4312      0.00000

 k-point   111 :      -0.3485   -0.7005    0.0000
  band No.  band energies     occupation 
      1     -13.2893      1.00000
      2     -13.2582      1.00000
      3     -13.1776      1.00000
      4     -13.1742      1.00000
      5      -6.6507      1.00000
      6      -6.6435      1.00000
      7      -6.0117      1.00000
      8      -5.9792      1.00000
      9      -5.3209      1.00000
     10      -5.2923      1.00000
     11      -4.8357      1.00000
     12      -4.8341      1.00000
     13      -4.3258      1.00000
     14      -4.2799      1.00000
     15      -3.5844      1.00000
     16      -3.5642      1.00000
     17      -1.4454      1.00000
     18      -1.3016      1.00000
     19       0.4287      0.00000
     20       0.4302      0.00000
     21       1.5153      0.00000
     22       1.5447      0.00000
     23       1.9670      0.00000
     24       2.1092      0.00000
     25       3.3731      0.00000
     26       3.4528      0.00000

 k-point   112 :      -0.3485   -0.6874    0.0000
  band No.  band energies     occupation 
      1     -13.2841      1.00000
      2     -13.2527      1.00000
      3     -13.1743      1.00000
      4     -13.1709      1.00000
      5      -6.6607      1.00000
      6      -6.6535      1.00000
      7      -5.9616      1.00000
      8      -5.9278      1.00000
      9      -5.3641      1.00000
     10      -5.3331      1.00000
     11      -4.8619      1.00000
     12      -4.8564      1.00000
     13      -4.3140      1.00000
     14      -4.2662      1.00000
     15      -3.6012      1.00000
     16      -3.5790      1.00000
     17      -1.4319      1.00000
     18      -1.2862      1.00000
     19       0.4117      0.00000
     20       0.4124      0.00000
     21       1.5056      0.00000
     22       1.5357      0.00000
     23       1.9835      0.00000
     24       2.1261      0.00000
     25       3.3856      0.00000
     26       3.4660      0.00000

 k-point   113 :      -0.3485   -0.6742    0.0000
  band No.  band energies     occupation 
      1     -13.2824      1.00000
      2     -13.2509      1.00000
      3     -13.1732      1.00000
      4     -13.1697      1.00000
      5      -6.6640      1.00000
      6      -6.6568      1.00000
      7      -5.9425      1.00000
      8      -5.9081      1.00000
      9      -5.3814      1.00000
     10      -5.3499      1.00000
     11      -4.8700      1.00000
     12      -4.8634      1.00000
     13      -4.3099      1.00000
     14      -4.2615      1.00000
     15      -3.6070      1.00000
     16      -3.5841      1.00000
     17      -1.4273      1.00000
     18      -1.2809      1.00000
     19       0.4054      0.00000
     20       0.4068      0.00000
     21       1.5023      0.00000
     22       1.5327      0.00000
     23       1.9890      0.00000
     24       2.1318      0.00000
     25       3.3897      0.00000
     26       3.4705      0.00000

 k-point   114 :      -0.3485   -0.6611    0.0000
  band No.  band energies     occupation 
      1     -13.2841      1.00000
      2     -13.2527      1.00000
      3     -13.1743      1.00000
      4     -13.1709      1.00000
      5      -6.6607      1.00000
      6      -6.6535      1.00000
      7      -5.9616      1.00000
      8      -5.9278      1.00000
      9      -5.3641      1.00000
     10      -5.3331      1.00000
     11      -4.8619      1.00000
     12      -4.8564      1.00000
     13      -4.3140      1.00000
     14      -4.2662      1.00000
     15      -3.6012      1.00000
     16      -3.5790      1.00000
     17      -1.4319      1.00000
     18      -1.2862      1.00000
     19       0.4117      0.00000
     20       0.4124      0.00000
     21       1.5056      0.00000
     22       1.5357      0.00000
     23       1.9835      0.00000
     24       2.1261      0.00000
     25       3.3856      0.00000
     26       3.4660      0.00000

 k-point   115 :      -0.3485   -0.6480    0.0000
  band No.  band energies     occupation 
      1     -13.2893      1.00000
      2     -13.2582      1.00000
      3     -13.1776      1.00000
      4     -13.1742      1.00000
      5      -6.6507      1.00000
      6      -6.6435      1.00000
      7      -6.0117      1.00000
      8      -5.9792      1.00000
      9      -5.3209      1.00000
     10      -5.2923      1.00000
     11      -4.8357      1.00000
     12      -4.8341      1.00000
     13      -4.3258      1.00000
     14      -4.2799      1.00000
     15      -3.5844      1.00000
     16      -3.5642      1.00000
     17      -1.4454      1.00000
     18      -1.3016      1.00000
     19       0.4287      0.00000
     20       0.4302      0.00000
     21       1.5153      0.00000
     22       1.5447      0.00000
     23       1.9670      0.00000
     24       2.1092      0.00000
     25       3.3731      0.00000
     26       3.4528      0.00000

 k-point   116 :      -0.3485   -0.6349    0.0000
  band No.  band energies     occupation 
      1     -13.2980      1.00000
      2     -13.2673      1.00000
      3     -13.1832      1.00000
      4     -13.1798      1.00000
      5      -6.6343      1.00000
      6      -6.6270      1.00000
      7      -6.0792      1.00000
      8      -6.0485      1.00000
      9      -5.2693      1.00000
     10      -5.2453      1.00000
     11      -4.7925      1.00000
     12      -4.7875      1.00000
     13      -4.3441      1.00000
     14      -4.3006      1.00000
     15      -3.5583      1.00000
     16      -3.5411      1.00000
     17      -1.4670      1.00000
     18      -1.3260      1.00000
     19       0.4546      0.00000
     20       0.4594      0.00000
     21       1.5313      0.00000
     22       1.5595      0.00000
     23       1.9401      0.00000
     24       2.0815      0.00000
     25       3.3528      0.00000
     26       3.4312      0.00000

 k-point   117 :      -0.3485   -0.6218    0.0000
  band No.  band energies     occupation 
      1     -13.3100      1.00000
      2     -13.2799      1.00000
      3     -13.1908      1.00000
      4     -13.1875      1.00000
      5      -6.6117      1.00000
      6      -6.6043      1.00000
      7      -6.1539      1.00000
      8      -6.1252      1.00000
      9      -5.2237      1.00000
     10      -5.2058      1.00000
     11      -4.7282      1.00000
     12      -4.7144      1.00000
     13      -4.3671      1.00000
     14      -4.3262      1.00000
     15      -3.5252      1.00000
     16      -3.5113      1.00000
     17      -1.4953      1.00000
     18      -1.3579      1.00000
     19       0.4885      0.00000
     20       0.4974      0.00000
     21       1.5533      0.00000
     22       1.5795      0.00000
     23       1.9038      0.00000
     24       2.0438      0.00000
     25       3.3252      0.00000
     26       3.4018      0.00000

 k-point   118 :      -0.3333   -0.7191    0.0000
  band No.  band energies     occupation 
      1     -13.3111      1.00000
      2     -13.2810      1.00000
      3     -13.1910      1.00000
      4     -13.1876      1.00000
      5      -6.6115      1.00000
      6      -6.6041      1.00000
      7      -6.1354      1.00000
      8      -6.1074      1.00000
      9      -5.2091      1.00000
     10      -5.1865      1.00000
     11      -4.7642      1.00000
     12      -4.7548      1.00000
     13      -4.3689      1.00000
     14      -4.3281      1.00000
     15      -3.5219      1.00000
     16      -3.5080      1.00000
     17      -1.4975      1.00000
     18      -1.3599      1.00000
     19       0.4863      0.00000
     20       0.4945      0.00000
     21       1.5438      0.00000
     22       1.5699      0.00000
     23       1.9027      0.00000
     24       2.0422      0.00000
     25       3.3325      0.00000
     26       3.4092      0.00000

 k-point   119 :      -0.3333   -0.7060    0.0000
  band No.  band energies     occupation 
      1     -13.2978      1.00000
      2     -13.2670      1.00000
      3     -13.1827      1.00000
      4     -13.1793      1.00000
      5      -6.6358      1.00000
      6      -6.6285      1.00000
      7      -6.0618      1.00000
      8      -6.0315      1.00000
      9      -5.2674      1.00000
     10      -5.2395      1.00000
     11      -4.8159      1.00000
     12      -4.8145      1.00000
     13      -4.3434      1.00000
     14      -4.2997      1.00000
     15      -3.5590      1.00000
     16      -3.5415      1.00000
     17      -1.4662      1.00000
     18      -1.3248      1.00000
     19       0.4510      0.00000
     20       0.4552      0.00000
     21       1.5247      0.00000
     22       1.5530      0.00000
     23       1.9420      0.00000
     24       2.0832      0.00000
     25       3.3587      0.00000
     26       3.4373      0.00000

 k-point   120 :      -0.3333   -0.6929    0.0000
  band No.  band energies     occupation 
      1     -13.2881      1.00000
      2     -13.2569      1.00000
      3     -13.1768      1.00000
      4     -13.1733      1.00000
      5      -6.6534      1.00000
      6      -6.6462      1.00000
      7      -5.9941      1.00000
      8      -5.9615      1.00000
      9      -5.3305      1.00000
     10      -5.2998      1.00000
     11      -4.8507      1.00000
     12      -4.8469      1.00000
     13      -4.3230      1.00000
     14      -4.2766      1.00000
     15      -3.5883      1.00000
     16      -3.5675      1.00000
     17      -1.4422      1.00000
     18      -1.2978      1.00000
     19       0.4239      0.00000
     20       0.4247      0.00000
     21       1.5109      0.00000
     22       1.5405      0.00000
     23       1.9712      0.00000
     24       2.1134      0.00000
     25       3.3779      0.00000
     26       3.4578      0.00000

 k-point   121 :      -0.3333   -0.6798    0.0000
  band No.  band energies     occupation 
      1     -13.2823      1.00000
      2     -13.2508      1.00000
      3     -13.1731      1.00000
      4     -13.1697      1.00000
      5      -6.6641      1.00000
      6      -6.6569      1.00000
      7      -5.9427      1.00000
      8      -5.9083      1.00000
      9      -5.3818      1.00000
     10      -5.3505      1.00000
     11      -4.8693      1.00000
     12      -4.8628      1.00000
     13      -4.3097      1.00000
     14      -4.2613      1.00000
     15      -3.6072      1.00000
     16      -3.5843      1.00000
     17      -1.4271      1.00000
     18      -1.2807      1.00000
     19       0.4053      0.00000
     20       0.4068      0.00000
     21       1.5025      0.00000
     22       1.5329      0.00000
     23       1.9892      0.00000
     24       2.1319      0.00000
     25       3.3897      0.00000
     26       3.4704      0.00000

 k-point   122 :      -0.3333   -0.6667    0.0000
  band No.  band energies     occupation 
      1     -13.2804      1.00000
      2     -13.2488      1.00000
      3     -13.1719      1.00000
      4     -13.1685      1.00000
      5      -6.6676      1.00000
      6      -6.6605      1.00000
      7      -5.9228      1.00000
      8      -5.8875      1.00000
      9      -5.4023      1.00000
     10      -5.3710      1.00000
     11      -4.8749      1.00000
     12      -4.8676      1.00000
     13      -4.3051      1.00000
     14      -4.2559      1.00000
     15      -3.6138      1.00000
     16      -3.5900      1.00000
     17      -1.4220      1.00000
     18      -1.2749      1.00000
     19       0.3987      0.00000
     20       0.4009      0.00000
     21       1.4997      0.00000
     22       1.5303      0.00000
     23       1.9952      0.00000
     24       2.1382      0.00000
     25       3.3936      0.00000
     26       3.4746      0.00000

 k-point   123 :      -0.3333   -0.6536    0.0000
  band No.  band energies     occupation 
      1     -13.2823      1.00000
      2     -13.2508      1.00000
      3     -13.1731      1.00000
      4     -13.1697      1.00000
      5      -6.6641      1.00000
      6      -6.6569      1.00000
      7      -5.9427      1.00000
      8      -5.9083      1.00000
      9      -5.3818      1.00000
     10      -5.3505      1.00000
     11      -4.8693      1.00000
     12      -4.8628      1.00000
     13      -4.3097      1.00000
     14      -4.2613      1.00000
     15      -3.6072      1.00000
     16      -3.5843      1.00000
     17      -1.4271      1.00000
     18      -1.2807      1.00000
     19       0.4053      0.00000
     20       0.4068      0.00000
     21       1.5025      0.00000
     22       1.5329      0.00000
     23       1.9892      0.00000
     24       2.1319      0.00000
     25       3.3896      0.00000
     26       3.4704      0.00000

 k-point   124 :      -0.3333   -0.6404    0.0000
  band No.  band energies     occupation 
      1     -13.2881      1.00000
      2     -13.2569      1.00000
      3     -13.1768      1.00000
      4     -13.1733      1.00000
      5      -6.6534      1.00000
      6      -6.6462      1.00000
      7      -5.9941      1.00000
      8      -5.9615      1.00000
      9      -5.3305      1.00000
     10      -5.2998      1.00000
     11      -4.8507      1.00000
     12      -4.8469      1.00000
     13      -4.3230      1.00000
     14      -4.2766      1.00000
     15      -3.5883      1.00000
     16      -3.5675      1.00000
     17      -1.4422      1.00000
     18      -1.2978      1.00000
     19       0.4239      0.00000
     20       0.4247      0.00000
     21       1.5109      0.00000
     22       1.5405      0.00000
     23       1.9712      0.00000
     24       2.1134      0.00000
     25       3.3779      0.00000
     26       3.4578      0.00000

 k-point   125 :      -0.3333   -0.6273    0.0000
  band No.  band energies     occupation 
      1     -13.2978      1.00000
      2     -13.2670      1.00000
      3     -13.1827      1.00000
      4     -13.1793      1.00000
      5      -6.6358      1.00000
      6      -6.6285      1.00000
      7      -6.0618      1.00000
      8      -6.0315      1.00000
      9      -5.2674      1.00000
     10      -5.2395      1.00000
     11      -4.8159      1.00000
     12      -4.8145      1.00000
     13      -4.3434      1.00000
     14      -4.2997      1.00000
     15      -3.5590      1.00000
     16      -3.5415      1.00000
     17      -1.4662      1.00000
     18      -1.3248      1.00000
     19       0.4510      0.00000
     20       0.4551      0.00000
     21       1.5247      0.00000
     22       1.5530      0.00000
     23       1.9420      0.00000
     24       2.0832      0.00000
     25       3.3587      0.00000
     26       3.4373      0.00000

 k-point   126 :      -0.3333   -0.6142    0.0000
  band No.  band energies     occupation 
      1     -13.3111      1.00000
      2     -13.2810      1.00000
      3     -13.1910      1.00000
      4     -13.1876      1.00000
      5      -6.6115      1.00000
      6      -6.6041      1.00000
      7      -6.1354      1.00000
      8      -6.1074      1.00000
      9      -5.2091      1.00000
     10      -5.1865      1.00000
     11      -4.7642      1.00000
     12      -4.7548      1.00000
     13      -4.3689      1.00000
     14      -4.3281      1.00000
     15      -3.5219      1.00000
     16      -3.5080      1.00000
     17      -1.4975      1.00000
     18      -1.3599      1.00000
     19       0.4863      0.00000
     20       0.4945      0.00000
     21       1.5438      0.00000
     22       1.5699      0.00000
     23       1.9027      0.00000
     24       2.0422      0.00000
     25       3.3325      0.00000
     26       3.4092      0.00000

 k-point   127 :      -0.3182   -0.7116    0.0000
  band No.  band energies     occupation 
      1     -13.3160      1.00000
      2     -13.2860      1.00000
      3     -13.1934      1.00000
      4     -13.1901      1.00000
      5      -6.6045      1.00000
      6      -6.5970      1.00000
      7      -6.1352      1.00000
      8      -6.1086      1.00000
      9      -5.1787      1.00000
     10      -5.1518      1.00000
     11      -4.7875      1.00000
     12      -4.7812      1.00000
     13      -4.3774      1.00000
     14      -4.3373      1.00000
     15      -3.5088      1.00000
     16      -3.4958      1.00000
     17      -1.5083      1.00000
     18      -1.3715      1.00000
     19       0.4936      0.00000
     20       0.5022      0.00000
     21       1.5396      0.00000
     22       1.5650      0.00000
     23       1.8908      0.00000
     24       2.0292      0.00000
     25       3.3325      0.00000
     26       3.4087      0.00000

 k-point   128 :      -0.3182   -0.6984    0.0000
  band No.  band energies     occupation 
      1     -13.3014      1.00000
      2     -13.2707      1.00000
      3     -13.1846      1.00000
      4     -13.1812      1.00000
      5      -6.6304      1.00000
      6      -6.6230      1.00000
      7      -6.0679      1.00000
      8      -6.0387      1.00000
      9      -5.2441      1.00000
     10      -5.2132      1.00000
     11      -4.8271      1.00000
     12      -4.8266      1.00000
     13      -4.3504      1.00000
     14      -4.3075      1.00000
     15      -3.5485      1.00000
     16      -3.5319      1.00000
     17      -1.4746      1.00000
     18      -1.3340      1.00000
     19       0.4579      0.00000
     20       0.4626      0.00000
     21       1.5237      0.00000
     22       1.5514      0.00000
     23       1.9325      0.00000
     24       2.0730      0.00000
     25       3.3570      0.00000
     26       3.4352      0.00000

 k-point   129 :      -0.3182   -0.6853    0.0000
  band No.  band energies     occupation 
      1     -13.2908      1.00000
      2     -13.2597      1.00000
      3     -13.1783      1.00000
      4     -13.1748      1.00000
      5      -6.6491      1.00000
      6      -6.6418      1.00000
      7      -6.0065      1.00000
      8      -5.9749      1.00000
      9      -5.3108      1.00000
     10      -5.2788      1.00000
     11      -4.8526      1.00000
     12      -4.8483      1.00000
     13      -4.3287      1.00000
     14      -4.2830      1.00000
     15      -3.5800      1.00000
     16      -3.5601      1.00000
     17      -1.4488      1.00000
     18      -1.3051      1.00000
     19       0.4302      0.00000
     20       0.4317      0.00000
     21       1.5121      0.00000
     22       1.5413      0.00000
     23       1.9636      0.00000
     24       2.1055      0.00000
     25       3.3749      0.00000
     26       3.4545      0.00000

 k-point   130 :      -0.3182   -0.6722    0.0000
  band No.  band energies     occupation 
      1     -13.2844      1.00000
      2     -13.2530      1.00000
      3     -13.1744      1.00000
      4     -13.1710      1.00000
      5      -6.6604      1.00000
      6      -6.6532      1.00000
      7      -5.9606      1.00000
      8      -5.9270      1.00000
      9      -5.3624      1.00000
     10      -5.3307      1.00000
     11      -4.8649      1.00000
     12      -4.8590      1.00000
     13      -4.3145      1.00000
     14      -4.2669      1.00000
     15      -3.6004      1.00000
     16      -3.5782      1.00000
     17      -1.4325      1.00000
     18      -1.2868      1.00000
     19       0.4120      0.00000
     20       0.4127      0.00000
     21       1.5050      0.00000
     22       1.5351      0.00000
     23       1.9828      0.00000
     24       2.1254      0.00000
     25       3.3859      0.00000
     26       3.4663      0.00000

 k-point   131 :      -0.3182   -0.6591    0.0000
  band No.  band energies     occupation 
      1     -13.2823      1.00000
      2     -13.2508      1.00000
      3     -13.1731      1.00000
      4     -13.1697      1.00000
      5      -6.6641      1.00000
      6      -6.6570      1.00000
      7      -5.9430      1.00000
      8      -5.9085      1.00000
      9      -5.3823      1.00000
     10      -5.3510      1.00000
     11      -4.8685      1.00000
     12      -4.8621      1.00000
     13      -4.3096      1.00000
     14      -4.2612      1.00000
     15      -3.6075      1.00000
     16      -3.5845      1.00000
     17      -1.4270      1.00000
     18      -1.2806      1.00000
     19       0.4052      0.00000
     20       0.4067      0.00000
     21       1.5026      0.00000
     22       1.5330      0.00000
     23       1.9893      0.00000
     24       2.1321      0.00000
     25       3.3896      0.00000
     26       3.4703      0.00000

 k-point   132 :      -0.3182   -0.6460    0.0000
  band No.  band energies     occupation 
      1     -13.2844      1.00000
      2     -13.2530      1.00000
      3     -13.1744      1.00000
      4     -13.1710      1.00000
      5      -6.6604      1.00000
      6      -6.6532      1.00000
      7      -5.9606      1.00000
      8      -5.9270      1.00000
      9      -5.3624      1.00000
     10      -5.3307      1.00000
     11      -4.8649      1.00000
     12      -4.8590      1.00000
     13      -4.3145      1.00000
     14      -4.2669      1.00000
     15      -3.6004      1.00000
     16      -3.5782      1.00000
     17      -1.4325      1.00000
     18      -1.2868      1.00000
     19       0.4120      0.00000
     20       0.4127      0.00000
     21       1.5050      0.00000
     22       1.5351      0.00000
     23       1.9828      0.00000
     24       2.1254      0.00000
     25       3.3859      0.00000
     26       3.4664      0.00000

 k-point   133 :      -0.3182   -0.6329    0.0000
  band No.  band energies     occupation 
      1     -13.2908      1.00000
      2     -13.2597      1.00000
      3     -13.1783      1.00000
      4     -13.1748      1.00000
      5      -6.6491      1.00000
      6      -6.6418      1.00000
      7      -6.0065      1.00000
      8      -5.9749      1.00000
      9      -5.3108      1.00000
     10      -5.2788      1.00000
     11      -4.8526      1.00000
     12      -4.8483      1.00000
     13      -4.3287      1.00000
     14      -4.2830      1.00000
     15      -3.5800      1.00000
     16      -3.5601      1.00000
     17      -1.4488      1.00000
     18      -1.3051      1.00000
     19       0.4302      0.00000
     20       0.4317      0.00000
     21       1.5121      0.00000
     22       1.5413      0.00000
     23       1.9636      0.00000
     24       2.1055      0.00000
     25       3.3749      0.00000
     26       3.4545      0.00000

 k-point   134 :      -0.3182   -0.6198    0.0000
  band No.  band energies     occupation 
      1     -13.3014      1.00000
      2     -13.2707      1.00000
      3     -13.1846      1.00000
      4     -13.1812      1.00000
      5      -6.6304      1.00000
      6      -6.6230      1.00000
      7      -6.0679      1.00000
      8      -6.0387      1.00000
      9      -5.2441      1.00000
     10      -5.2132      1.00000
     11      -4.8271      1.00000
     12      -4.8266      1.00000
     13      -4.3504      1.00000
     14      -4.3075      1.00000
     15      -3.5485      1.00000
     16      -3.5319      1.00000
     17      -1.4746      1.00000
     18      -1.3340      1.00000
     19       0.4579      0.00000
     20       0.4626      0.00000
     21       1.5237      0.00000
     22       1.5514      0.00000
     23       1.9325      0.00000
     24       2.0730      0.00000
     25       3.3570      0.00000
     26       3.4352      0.00000

 k-point   135 :      -0.3182   -0.6066    0.0000
  band No.  band energies     occupation 
      1     -13.3160      1.00000
      2     -13.2860      1.00000
      3     -13.1934      1.00000
      4     -13.1901      1.00000
      5      -6.6045      1.00000
      6      -6.5970      1.00000
      7      -6.1352      1.00000
      8      -6.1086      1.00000
      9      -5.1788      1.00000
     10      -5.1518      1.00000
     11      -4.7875      1.00000
     12      -4.7812      1.00000
     13      -4.3774      1.00000
     14      -4.3373      1.00000
     15      -3.5088      1.00000
     16      -3.4958      1.00000
     17      -1.5083      1.00000
     18      -1.3715      1.00000
     19       0.4936      0.00000
     20       0.5022      0.00000
     21       1.5396      0.00000
     22       1.5650      0.00000
     23       1.8908      0.00000
     24       2.0292      0.00000
     25       3.3325      0.00000
     26       3.4087      0.00000

 k-point   136 :      -0.3030   -0.7040    0.0000
  band No.  band energies     occupation 
      1     -13.3243      1.00000
      2     -13.2946      1.00000
      3     -13.1980      1.00000
      4     -13.1947      1.00000
      5      -6.5911      1.00000
      6      -6.5835      1.00000
      7      -6.1535      1.00000
      8      -6.1284      1.00000
      9      -5.1394      1.00000
     10      -5.1105      1.00000
     11      -4.7914      1.00000
     12      -4.7855      1.00000
     13      -4.3913      1.00000
     14      -4.3525      1.00000
     15      -3.4877      1.00000
     16      -3.4762      1.00000
     17      -1.5262      1.00000
     18      -1.3910      1.00000
     19       0.5096      0.00000
     20       0.5195      0.00000
     21       1.5416      0.00000
     22       1.5657      0.00000
     23       1.8693      0.00000
     24       2.0062      0.00000
     25       3.3248      0.00000
     26       3.3999      0.00000

 k-point   137 :      -0.3030   -0.6909    0.0000
  band No.  band energies     occupation 
      1     -13.3084      1.00000
      2     -13.2780      1.00000
      3     -13.1887      1.00000
      4     -13.1854      1.00000
      5      -6.6184      1.00000
      6      -6.6110      1.00000
      7      -6.0965      1.00000
      8      -6.0688      1.00000
      9      -5.2066      1.00000
     10      -5.1755      1.00000
     11      -4.8190      1.00000
     12      -4.8182      1.00000
     13      -4.3637      1.00000
     14      -4.3222      1.00000
     15      -3.5290      1.00000
     16      -3.5141      1.00000
     17      -1.4909      1.00000
     18      -1.3521      1.00000
     19       0.4742      0.00000
     20       0.4806      0.00000
     21       1.5289      0.00000
     22       1.5556      0.00000
     23       1.9128      0.00000
     24       2.0523      0.00000
     25       3.3473      0.00000
     26       3.4245      0.00000

 k-point   138 :      -0.3030   -0.6778    0.0000
  band No.  band energies     occupation 
      1     -13.2969      1.00000
      2     -13.2660      1.00000
      3     -13.1820      1.00000
      4     -13.1786      1.00000
      5      -6.6381      1.00000
      6      -6.6308      1.00000
      7      -6.0460      1.00000
      8      -6.0158      1.00000
      9      -5.2704      1.00000
     10      -5.2395      1.00000
     11      -4.8348      1.00000
     12      -4.8332      1.00000
     13      -4.3415      1.00000
     14      -4.2975      1.00000
     15      -3.5615      1.00000
     16      -3.5436      1.00000
     17      -1.4639      1.00000
     18      -1.3221      1.00000
     19       0.4468      0.00000
     20       0.4502      0.00000
     21       1.5196      0.00000
     22       1.5480      0.00000
     23       1.9454      0.00000
     24       2.0865      0.00000
     25       3.3638      0.00000
     26       3.4426      0.00000

 k-point   139 :      -0.3030   -0.6646    0.0000
  band No.  band energies     occupation 
      1     -13.2899      1.00000
      2     -13.2588      1.00000
      3     -13.1779      1.00000
      4     -13.1745      1.00000
      5      -6.6500      1.00000
      6      -6.6428      1.00000
      7      -6.0096      1.00000
      8      -5.9774      1.00000
      9      -5.3168      1.00000
     10      -5.2869      1.00000
     11      -4.8425      1.00000
     12      -4.8398      1.00000
     13      -4.3270      1.00000
     14      -4.2812      1.00000
     15      -3.5826      1.00000
     16      -3.5625      1.00000
     17      -1.4468      1.00000
     18      -1.3030      1.00000
     19       0.4293      0.00000
     20       0.4308      0.00000
     21       1.5140      0.00000
     22       1.5433      0.00000
     23       1.9656      0.00000
     24       2.1076      0.00000
     25       3.3739      0.00000
     26       3.4535      0.00000

 k-point   140 :      -0.3030   -0.6515    0.0000
  band No.  band energies     occupation 
      1     -13.2876      1.00000
      2     -13.2564      1.00000
      3     -13.1765      1.00000
      4     -13.1731      1.00000
      5      -6.6540      1.00000
      6      -6.6468      1.00000
      7      -5.9960      1.00000
      8      -5.9631      1.00000
      9      -5.3340      1.00000
     10      -5.3046      1.00000
     11      -4.8447      1.00000
     12      -4.8418      1.00000
     13      -4.3220      1.00000
     14      -4.2754      1.00000
     15      -3.5899      1.00000
     16      -3.5691      1.00000
     17      -1.4410      1.00000
     18      -1.2965      1.00000
     19       0.4233      0.00000
     20       0.4241      0.00000
     21       1.5121      0.00000
     22       1.5418      0.00000
     23       1.9724      0.00000
     24       2.1148      0.00000
     25       3.3773      0.00000
     26       3.4572      0.00000

 k-point   141 :      -0.3030   -0.6384    0.0000
  band No.  band energies     occupation 
      1     -13.2899      1.00000
      2     -13.2588      1.00000
      3     -13.1779      1.00000
      4     -13.1745      1.00000
      5      -6.6500      1.00000
      6      -6.6428      1.00000
      7      -6.0096      1.00000
      8      -5.9774      1.00000
      9      -5.3168      1.00000
     10      -5.2869      1.00000
     11      -4.8425      1.00000
     12      -4.8398      1.00000
     13      -4.3270      1.00000
     14      -4.2812      1.00000
     15      -3.5826      1.00000
     16      -3.5625      1.00000
     17      -1.4468      1.00000
     18      -1.3030      1.00000
     19       0.4293      0.00000
     20       0.4308      0.00000
     21       1.5140      0.00000
     22       1.5433      0.00000
     23       1.9656      0.00000
     24       2.1076      0.00000
     25       3.3739      0.00000
     26       3.4535      0.00000

 k-point   142 :      -0.3030   -0.6253    0.0000
  band No.  band energies     occupation 
      1     -13.2969      1.00000
      2     -13.2660      1.00000
      3     -13.1820      1.00000
      4     -13.1786      1.00000
      5      -6.6381      1.00000
      6      -6.6308      1.00000
      7      -6.0460      1.00000
      8      -6.0158      1.00000
      9      -5.2704      1.00000
     10      -5.2395      1.00000
     11      -4.8348      1.00000
     12      -4.8332      1.00000
     13      -4.3415      1.00000
     14      -4.2975      1.00000
     15      -3.5615      1.00000
     16      -3.5436      1.00000
     17      -1.4639      1.00000
     18      -1.3221      1.00000
     19       0.4468      0.00000
     20       0.4502      0.00000
     21       1.5196      0.00000
     22       1.5480      0.00000
     23       1.9454      0.00000
     24       2.0865      0.00000
     25       3.3638      0.00000
     26       3.4426      0.00000

 k-point   143 :      -0.3030   -0.6122    0.0000
  band No.  band energies     occupation 
      1     -13.3084      1.00000
      2     -13.2780      1.00000
      3     -13.1887      1.00000
      4     -13.1854      1.00000
      5      -6.6184      1.00000
      6      -6.6110      1.00000
      7      -6.0965      1.00000
      8      -6.0688      1.00000
      9      -5.2066      1.00000
     10      -5.1755      1.00000
     11      -4.8190      1.00000
     12      -4.8182      1.00000
     13      -4.3637      1.00000
     14      -4.3222      1.00000
     15      -3.5290      1.00000
     16      -3.5141      1.00000
     17      -1.4909      1.00000
     18      -1.3521      1.00000
     19       0.4742      0.00000
     20       0.4806      0.00000
     21       1.5289      0.00000
     22       1.5556      0.00000
     23       1.9128      0.00000
     24       2.0523      0.00000
     25       3.3473      0.00000
     26       3.4245      0.00000

 k-point   144 :      -0.3030   -0.5991    0.0000
  band No.  band energies     occupation 
      1     -13.3243      1.00000
      2     -13.2946      1.00000
      3     -13.1980      1.00000
      4     -13.1947      1.00000
      5      -6.5911      1.00000
      6      -6.5835      1.00000
      7      -6.1535      1.00000
      8      -6.1284      1.00000
      9      -5.1394      1.00000
     10      -5.1105      1.00000
     11      -4.7914      1.00000
     12      -4.7855      1.00000
     13      -4.3913      1.00000
     14      -4.3525      1.00000
     15      -3.4877      1.00000
     16      -3.4762      1.00000
     17      -1.5262      1.00000
     18      -1.3910      1.00000
     19       0.5096      0.00000
     20       0.5195      0.00000
     21       1.5416      0.00000
     22       1.5657      0.00000
     23       1.8693      0.00000
     24       2.0062      0.00000
     25       3.3248      0.00000
     26       3.3999      0.00000

 k-point   145 :      -0.2879   -0.6964    0.0000
  band No.  band energies     occupation 
      1     -13.3356      1.00000
      2     -13.3062      1.00000
      3     -13.2046      1.00000
      4     -13.2013      1.00000
      5      -6.5719      1.00000
      6      -6.5642      1.00000
      7      -6.1877      1.00000
      8      -6.1641      1.00000
      9      -5.1050      1.00000
     10      -5.0790      1.00000
     11      -4.7650      1.00000
     12      -4.7543      1.00000
     13      -4.4089      1.00000
     14      -4.3715      1.00000
     15      -3.4608      1.00000
     16      -3.4513      1.00000
     17      -1.5496      1.00000
     18      -1.4167      1.00000
     19       0.5327      0.00000
     20       0.5447      0.00000
     21       1.5507      0.00000
     22       1.5727      0.00000
     23       1.8399      0.00000
     24       1.9748      0.00000
     25       3.3091      0.00000
     26       3.3826      0.00000

 k-point   146 :      -0.2879   -0.6833    0.0000
  band No.  band energies     occupation 
      1     -13.3184      1.00000
      2     -13.2884      1.00000
      3     -13.1948      1.00000
      4     -13.1914      1.00000
      5      -6.6006      1.00000
      6      -6.5930      1.00000
      7      -6.1428      1.00000
      8      -6.1166      1.00000
      9      -5.1692      1.00000
     10      -5.1425      1.00000
     11      -4.7840      1.00000
     12      -4.7770      1.00000
     13      -4.3814      1.00000
     14      -4.3417      1.00000
     15      -3.5028      1.00000
     16      -3.4902      1.00000
     17      -1.5134      1.00000
     18      -1.3771      1.00000
     19       0.4987      0.00000
     20       0.5077      0.00000
     21       1.5412      0.00000
     22       1.5663      0.00000
     23       1.8845      0.00000
     24       2.0225      0.00000
     25       3.3294      0.00000
     26       3.4053      0.00000

 k-point   147 :      -0.2879   -0.6702    0.0000
  band No.  band energies     occupation 
      1     -13.3060      1.00000
      2     -13.2756      1.00000
      3     -13.1877      1.00000
      4     -13.1843      1.00000
      5      -6.6212      1.00000
      6      -6.6138      1.00000
      7      -6.1042      1.00000
      8      -6.0756      1.00000
      9      -5.2263      1.00000
     10      -5.2003      1.00000
     11      -4.7933      1.00000
     12      -4.7882      1.00000
     13      -4.3594      1.00000
     14      -4.3176      1.00000
     15      -3.5357      1.00000
     16      -3.5204      1.00000
     17      -1.4857      1.00000
     18      -1.3466      1.00000
     19       0.4721      0.00000
     20       0.4786      0.00000
     21       1.5343      0.00000
     22       1.5613      0.00000
     23       1.9181      0.00000
     24       2.0581      0.00000
     25       3.3444      0.00000
     26       3.4218      0.00000

 k-point   148 :      -0.2879   -0.6571    0.0000
  band No.  band energies     occupation 
      1     -13.2985      1.00000
      2     -13.2678      1.00000
      3     -13.1834      1.00000
      4     -13.1800      1.00000
      5      -6.6337      1.00000
      6      -6.6264      1.00000
      7      -6.0775      1.00000
      8      -6.0470      1.00000
      9      -5.2657      1.00000
     10      -5.2408      1.00000
     11      -4.7975      1.00000
     12      -4.7932      1.00000
     13      -4.3451      1.00000
     14      -4.3017      1.00000
     15      -3.5568      1.00000
     16      -3.5397      1.00000
     17      -1.4681      1.00000
     18      -1.3272      1.00000
     19       0.4551      0.00000
     20       0.4599      0.00000
     21       1.5301      0.00000
     22       1.5582      0.00000
     23       1.9389      0.00000
     24       2.0802      0.00000
     25       3.3535      0.00000
     26       3.4318      0.00000

 k-point   149 :      -0.2879   -0.6440    0.0000
  band No.  band energies     occupation 
      1     -13.2960      1.00000
      2     -13.2652      1.00000
      3     -13.1820      1.00000
      4     -13.1786      1.00000
      5      -6.6379      1.00000
      6      -6.6306      1.00000
      7      -6.0678      1.00000
      8      -6.0367      1.00000
      9      -5.2799      1.00000
     10      -5.2554      1.00000
     11      -4.7987      1.00000
     12      -4.7946      1.00000
     13      -4.3401      1.00000
     14      -4.2961      1.00000
     15      -3.5641      1.00000
     16      -3.5463      1.00000
     17      -1.4621      1.00000
     18      -1.3206      1.00000
     19       0.4493      0.00000
     20       0.4535      0.00000
     21       1.5287      0.00000
     22       1.5572      0.00000
     23       1.9460      0.00000
     24       2.0876      0.00000
     25       3.3565      0.00000
     26       3.4352      0.00000

 k-point   150 :      -0.2879   -0.6308    0.0000
  band No.  band energies     occupation 
      1     -13.2985      1.00000
      2     -13.2678      1.00000
      3     -13.1834      1.00000
      4     -13.1800      1.00000
      5      -6.6337      1.00000
      6      -6.6264      1.00000
      7      -6.0775      1.00000
      8      -6.0470      1.00000
      9      -5.2657      1.00000
     10      -5.2408      1.00000
     11      -4.7975      1.00000
     12      -4.7932      1.00000
     13      -4.3451      1.00000
     14      -4.3017      1.00000
     15      -3.5568      1.00000
     16      -3.5397      1.00000
     17      -1.4681      1.00000
     18      -1.3272      1.00000
     19       0.4551      0.00000
     20       0.4599      0.00000
     21       1.5301      0.00000
     22       1.5582      0.00000
     23       1.9389      0.00000
     24       2.0802      0.00000
     25       3.3535      0.00000
     26       3.4318      0.00000

 k-point   151 :      -0.2879   -0.6177    0.0000
  band No.  band energies     occupation 
      1     -13.3060      1.00000
      2     -13.2756      1.00000
      3     -13.1877      1.00000
      4     -13.1843      1.00000
      5      -6.6212      1.00000
      6      -6.6138      1.00000
      7      -6.1042      1.00000
      8      -6.0756      1.00000
      9      -5.2263      1.00000
     10      -5.2003      1.00000
     11      -4.7933      1.00000
     12      -4.7881      1.00000
     13      -4.3594      1.00000
     14      -4.3176      1.00000
     15      -3.5357      1.00000
     16      -3.5204      1.00000
     17      -1.4856      1.00000
     18      -1.3466      1.00000
     19       0.4721      0.00000
     20       0.4786      0.00000
     21       1.5343      0.00000
     22       1.5613      0.00000
     23       1.9181      0.00000
     24       2.0581      0.00000
     25       3.3443      0.00000
     26       3.4218      0.00000

 k-point   152 :      -0.2879   -0.6046    0.0000
  band No.  band energies     occupation 
      1     -13.3184      1.00000
      2     -13.2884      1.00000
      3     -13.1948      1.00000
      4     -13.1914      1.00000
      5      -6.6006      1.00000
      6      -6.5930      1.00000
      7      -6.1428      1.00000
      8      -6.1166      1.00000
      9      -5.1692      1.00000
     10      -5.1425      1.00000
     11      -4.7840      1.00000
     12      -4.7770      1.00000
     13      -4.3814      1.00000
     14      -4.3417      1.00000
     15      -3.5028      1.00000
     16      -3.4902      1.00000
     17      -1.5134      1.00000
     18      -1.3771      1.00000
     19       0.4987      0.00000
     20       0.5077      0.00000
     21       1.5412      0.00000
     22       1.5663      0.00000
     23       1.8845      0.00000
     24       2.0225      0.00000
     25       3.3294      0.00000
     26       3.4053      0.00000

 k-point   153 :      -0.2879   -0.5915    0.0000
  band No.  band energies     occupation 
      1     -13.3356      1.00000
      2     -13.3062      1.00000
      3     -13.2046      1.00000
      4     -13.2013      1.00000
      5      -6.5719      1.00000
      6      -6.5642      1.00000
      7      -6.1877      1.00000
      8      -6.1641      1.00000
      9      -5.1050      1.00000
     10      -5.0790      1.00000
     11      -4.7650      1.00000
     12      -4.7543      1.00000
     13      -4.4089      1.00000
     14      -4.3715      1.00000
     15      -3.4608      1.00000
     16      -3.4513      1.00000
     17      -1.5496      1.00000
     18      -1.4167      1.00000
     19       0.5327      0.00000
     20       0.5447      0.00000
     21       1.5507      0.00000
     22       1.5727      0.00000
     23       1.8399      0.00000
     24       1.9748      0.00000
     25       3.3091      0.00000
     26       3.3826      0.00000

 k-point   154 :      -0.2728   -0.6888    0.0000
  band No.  band energies     occupation 
      1     -13.3493      1.00000
      2     -13.3205      1.00000
      3     -13.2128      1.00000
      4     -13.2096      1.00000
      5      -6.5475      1.00000
      6      -6.5397      1.00000
      7      -6.2339      1.00000
      8      -6.2117      1.00000
      9      -5.0882      1.00000
     10      -5.0691      1.00000
     11      -4.7002      1.00000
     12      -4.6806      1.00000
     13      -4.4283      1.00000
     14      -4.3922      1.00000
     15      -3.4306      1.00000
     16      -3.4233      1.00000
     17      -1.5767      1.00000
     18      -1.4465      1.00000
     19       0.5615      0.00000
     20       0.5761      0.00000
     21       1.5673      0.00000
     22       1.5860      0.00000
     23       1.8047      0.00000
     24       1.9364      0.00000
     25       3.2855      0.00000
     26       3.3570      0.00000

 k-point   155 :      -0.2728   -0.6757    0.0000
  band No.  band energies     occupation 
      1     -13.3309      1.00000
      2     -13.3016      1.00000
      3     -13.2026      1.00000
      4     -13.1993      1.00000
      5      -6.5775      1.00000
      6      -6.5698      1.00000
      7      -6.2011      1.00000
      8      -6.1762      1.00000
      9      -5.1452      1.00000
     10      -5.1262      1.00000
     11      -4.7146      1.00000
     12      -4.6980      1.00000
     13      -4.4016      1.00000
     14      -4.3637      1.00000
     15      -3.4725      1.00000
     16      -3.4626      1.00000
     17      -1.5402      1.00000
     18      -1.4069      1.00000
     19       0.5294      0.00000
     20       0.5418      0.00000
     21       1.5613      0.00000
     22       1.5838      0.00000
     23       1.8494      0.00000
     24       1.9853      0.00000
     25       3.3035      0.00000
     26       3.3774      0.00000

 k-point   156 :      -0.2728   -0.6626    0.0000
  band No.  band energies     occupation 
      1     -13.3177      1.00000
      2     -13.2879      1.00000
      3     -13.1952      1.00000
      4     -13.1919      1.00000
      5      -6.5990      1.00000
      6      -6.5915      1.00000
      7      -6.1735      1.00000
      8      -6.1463      1.00000
      9      -5.1935      1.00000
     10      -5.1752      1.00000
     11      -4.7219      1.00000
     12      -4.7070      1.00000
     13      -4.3803      1.00000
     14      -4.3407      1.00000
     15      -3.5052      1.00000
     16      -3.4929      1.00000
     17      -1.5122      1.00000
     18      -1.3764      1.00000
     19       0.5043      0.00000
     20       0.5146      0.00000
     21       1.5568      0.00000
     22       1.5817      0.00000
     23       1.8833      0.00000
     24       2.0219      0.00000
     25       3.3167      0.00000
     26       3.3924      0.00000

 k-point   157 :      -0.2728   -0.6495    0.0000
  band No.  band energies     occupation 
      1     -13.3097      1.00000
      2     -13.2796      1.00000
      3     -13.1907      1.00000
      4     -13.1874      1.00000
      5      -6.6120      1.00000
      6      -6.6046      1.00000
      7      -6.1549      1.00000
      8      -6.1261      1.00000
      9      -5.2257      1.00000
     10      -5.2083      1.00000
     11      -4.7253      1.00000
     12      -4.7113      1.00000
     13      -4.3665      1.00000
     14      -4.3256      1.00000
     15      -3.5260      1.00000
     16      -3.5122      1.00000
     17      -1.4946      1.00000
     18      -1.3571      1.00000
     19       0.4882      0.00000
     20       0.4971      0.00000
     21       1.5541      0.00000
     22       1.5803      0.00000
     23       1.9046      0.00000
     24       2.0446      0.00000
     25       3.3248      0.00000
     26       3.4014      0.00000

 k-point   158 :      -0.2728   -0.6364    0.0000
  band No.  band energies     occupation 
      1     -13.3070      1.00000
      2     -13.2768      1.00000
      3     -13.1892      1.00000
      4     -13.1859      1.00000
      5      -6.6164      1.00000
      6      -6.6090      1.00000
      7      -6.1483      1.00000
      8      -6.1189      1.00000
      9      -5.2371      1.00000
     10      -5.2199      1.00000
     11      -4.7263      1.00000
     12      -4.7126      1.00000
     13      -4.3617      1.00000
     14      -4.3203      1.00000
     15      -3.5332      1.00000
     16      -3.5188      1.00000
     17      -1.4885      1.00000
     18      -1.3505      1.00000
     19       0.4826      0.00000
     20       0.4911      0.00000
     21       1.5531      0.00000
     22       1.5798      0.00000
     23       1.9118      0.00000
     24       2.0523      0.00000
     25       3.3275      0.00000
     26       3.4044      0.00000

 k-point   159 :      -0.2728   -0.6233    0.0000
  band No.  band energies     occupation 
      1     -13.3097      1.00000
      2     -13.2796      1.00000
      3     -13.1907      1.00000
      4     -13.1874      1.00000
      5      -6.6120      1.00000
      6      -6.6046      1.00000
      7      -6.1549      1.00000
      8      -6.1261      1.00000
      9      -5.2257      1.00000
     10      -5.2083      1.00000
     11      -4.7253      1.00000
     12      -4.7113      1.00000
     13      -4.3665      1.00000
     14      -4.3256      1.00000
     15      -3.5260      1.00000
     16      -3.5122      1.00000
     17      -1.4946      1.00000
     18      -1.3571      1.00000
     19       0.4882      0.00000
     20       0.4971      0.00000
     21       1.5541      0.00000
     22       1.5803      0.00000
     23       1.9045      0.00000
     24       2.0446      0.00000
     25       3.3248      0.00000
     26       3.4014      0.00000

 k-point   160 :      -0.2728   -0.6102    0.0000
  band No.  band energies     occupation 
      1     -13.3177      1.00000
      2     -13.2879      1.00000
      3     -13.1952      1.00000
      4     -13.1919      1.00000
      5      -6.5990      1.00000
      6      -6.5915      1.00000
      7      -6.1735      1.00000
      8      -6.1463      1.00000
      9      -5.1935      1.00000
     10      -5.1752      1.00000
     11      -4.7219      1.00000
     12      -4.7070      1.00000
     13      -4.3803      1.00000
     14      -4.3407      1.00000
     15      -3.5052      1.00000
     16      -3.4929      1.00000
     17      -1.5122      1.00000
     18      -1.3764      1.00000
     19       0.5043      0.00000
     20       0.5146      0.00000
     21       1.5568      0.00000
     22       1.5817      0.00000
     23       1.8833      0.00000
     24       2.0219      0.00000
     25       3.3167      0.00000
     26       3.3923      0.00000

 k-point   161 :      -0.2728   -0.5970    0.0000
  band No.  band energies     occupation 
      1     -13.3309      1.00000
      2     -13.3016      1.00000
      3     -13.2026      1.00000
      4     -13.1993      1.00000
      5      -6.5775      1.00000
      6      -6.5698      1.00000
      7      -6.2011      1.00000
      8      -6.1762      1.00000
      9      -5.1453      1.00000
     10      -5.1262      1.00000
     11      -4.7146      1.00000
     12      -4.6980      1.00000
     13      -4.4016      1.00000
     14      -4.3637      1.00000
     15      -3.4725      1.00000
     16      -3.4626      1.00000
     17      -1.5402      1.00000
     18      -1.4069      1.00000
     19       0.5294      0.00000
     20       0.5418      0.00000
     21       1.5613      0.00000
     22       1.5838      0.00000
     23       1.8494      0.00000
     24       1.9853      0.00000
     25       3.3035      0.00000
     26       3.3774      0.00000

 k-point   162 :      -0.2728   -0.5839    0.0000
  band No.  band energies     occupation 
      1     -13.3493      1.00000
      2     -13.3205      1.00000
      3     -13.2128      1.00000
      4     -13.2096      1.00000
      5      -6.5475      1.00000
      6      -6.5397      1.00000
      7      -6.2339      1.00000
      8      -6.2117      1.00000
      9      -5.0882      1.00000
     10      -5.0691      1.00000
     11      -4.7002      1.00000
     12      -4.6806      1.00000
     13      -4.4283      1.00000
     14      -4.3922      1.00000
     15      -3.4306      1.00000
     16      -3.4233      1.00000
     17      -1.5767      1.00000
     18      -1.4465      1.00000
     19       0.5615      0.00000
     20       0.5761      0.00000
     21       1.5673      0.00000
     22       1.5860      0.00000
     23       1.8047      0.00000
     24       1.9364      0.00000
     25       3.2855      0.00000
     26       3.3570      0.00000


--------------------------------------------------------------------------------------------------------


 soft charge-density along one line, spin component           1
         0         1         2         3         4         5         6         7         8         9
x     0.0000    0.0000    0.0000    0.0000    0.0000    0.0000    0.0000    0.0000    0.0000    0.0000
x     0.0000    0.0000    0.0000    0.0000    0.0000    0.0000    0.0000    0.0000
y     0.0000    0.0000    0.0000    0.0000    0.0000    0.0000    0.0000    0.0000    0.0000    0.0000
y     0.0000    0.0000    0.0000    0.0000    0.0000    0.0000    0.0000    0.0000
z     0.0000    0.0000    0.0000    0.0000    0.0000    0.0000    0.0000    0.0000    0.0000    0.0000
z     0.0000    0.0000    0.0000    0.0000    0.0000    0.0000    0.0000    0.0000    0.0000    0.0000
z     0.0000    0.0000    0.0000    0.0000    0.0000    0.0000    0.0000    0.0000    0.0000    0.0000
z     0.0000    0.0000    0.0000    0.0000    0.0000    0.0000    0.0000    0.0000    0.0000    0.0000
z     0.0000    0.0000    0.0000    0.0000    0.0000    0.0000    0.0000    0.0000    0.0000    0.0000
z     0.0000    0.0000    0.0000    0.0000    0.0000    0.0000    0.0000    0.0000    0.0000    0.0000
z     0.0000    0.0000    0.0000    0.0000    0.0000    0.0000    0.0000    0.0000    0.0000    0.0000
z     0.0000    0.0000    0.0000    0.0000    0.0000    0.0000    0.0000    0.0000    0.0000    0.0000
z     0.0000    0.0000
 total charge-density along one line
x    18.0000   -0.0000   -0.6255   -3.8182    0.1518   -0.3733   -0.3296    0.0315    0.0537    0.0517
x     0.0038   -0.0023   -0.0026    0.0002    0.0002    0.0002   -0.0002    0.0003   -0.0002    0.0000
x    -0.0000   -0.0000   -0.0000    0.0001   -0.0000   -0.0000   -0.0000   -0.0000   -0.0000    0.0000
x    -0.0000    0.0000   -0.0000    0.0000
y    18.0000   -0.0000   -0.6255   -3.8182    0.1518   -0.3733   -0.3296    0.0315    0.0537    0.0517
y     0.0038   -0.0023   -0.0026    0.0002    0.0002    0.0002   -0.0002    0.0003   -0.0002    0.0000
y    -0.0000   -0.0000   -0.0000    0.0001   -0.0000   -0.0000   -0.0000   -0.0000   -0.0000    0.0000
y    -0.0000    0.0000   -0.0000    0.0000
z    18.0000   -0.0000  -14.7899    0.0000    7.3297   -0.0000   -0.1899   -0.0000   -3.3481    0.0000
z     3.1419   -0.0000   -1.2045    0.0000   -0.3968    0.0000    0.8356   -0.0000   -0.4635    0.0000
z     0.0182   -0.0000    0.0615   -0.0000    0.1871    0.0000   -0.4731   -0.0000    0.5567   -0.0000
z    -0.4009    0.0000    0.1330   -0.0000    0.0871    0.0000   -0.1728    0.0000    0.1362   -0.0000
z    -0.0461    0.0000   -0.0306    0.0000    0.0633   -0.0000   -0.0580    0.0000    0.0373   -0.0000
z    -0.0192   -0.0000    0.0096    0.0000   -0.0054   -0.0000    0.0026   -0.0000    0.0000    0.0000
z    -0.0013   -0.0000    0.0006    0.0000    0.0009    0.0000   -0.0017   -0.0000    0.0012    0.0000
z     0.0000    0.0000   -0.0009   -0.0000    0.0007    0.0000   -0.0001   -0.0000   -0.0004   -0.0000
z     0.0003    0.0000    0.0002   -0.0000   -0.0005   -0.0000    0.0005    0.0000   -0.0002   -0.0000
z    -0.0000    0.0000    0.0000    0.0000    0.0001   -0.0000   -0.0002    0.0000    0.0001    0.0000
z     0.0001   -0.0000   -0.0002    0.0000    0.0002    0.0000   -0.0000   -0.0000   -0.0000    0.0000
z    -0.0000   -0.0000    0.0001   -0.0000   -0.0001    0.0000    0.0000   -0.0000    0.0000    0.0000
z    -0.0001    0.0000    0.0000   -0.0000    0.0000    0.0000   -0.0000    0.0000   -0.0000   -0.0000
z     0.0000    0.0000   -0.0001   -0.0000    0.0000   -0.0000    0.0000    0.0000   -0.0000   -0.0000
z    -0.0000   -0.0000    0.0000    0.0000   -0.0000   -0.0000   -0.0000   -0.0000    0.0000    0.0000
z    -0.0000   -0.0000    0.0000    0.0000    0.0000    0.0000   -0.0000   -0.0000   -0.0000    0.0000
z     0.0000    0.0000
 
 soft charge-density along one line, spin component           2
         0         1         2         3         4         5         6         7         8         9
x     0.0000    0.0000    0.0000    0.0000    0.0000    0.0000    0.0000    0.0000    0.0000    0.0000
x     0.0000    0.0000    0.0000    0.0000    0.0000    0.0000    0.0000    0.0000
y     0.0000    0.0000    0.0000    0.0000    0.0000    0.0000    0.0000    0.0000    0.0000    0.0000
y     0.0000    0.0000    0.0000    0.0000    0.0000    0.0000    0.0000    0.0000
z     0.0000    0.0000    0.0000    0.0000    0.0000    0.0000    0.0000    0.0000    0.0000    0.0000
z     0.0000    0.0000    0.0000    0.0000    0.0000    0.0000    0.0000    0.0000    0.0000    0.0000
z     0.0000    0.0000    0.0000    0.0000    0.0000    0.0000    0.0000    0.0000    0.0000    0.0000
z     0.0000    0.0000    0.0000    0.0000    0.0000    0.0000    0.0000    0.0000    0.0000    0.0000
z     0.0000    0.0000    0.0000    0.0000    0.0000    0.0000    0.0000    0.0000    0.0000    0.0000
z     0.0000    0.0000    0.0000    0.0000    0.0000    0.0000    0.0000    0.0000    0.0000    0.0000
z     0.0000    0.0000    0.0000    0.0000    0.0000    0.0000    0.0000    0.0000    0.0000    0.0000
z     0.0000    0.0000    0.0000    0.0000    0.0000    0.0000    0.0000    0.0000    0.0000    0.0000
z     0.0000    0.0000
 total charge-density along one line
x     0.0000    0.0000   -0.0000   -0.0000    0.0000    0.0000    0.0000   -0.0000   -0.0000    0.0000
x    -0.0000    0.0000    0.0000   -0.0000    0.0000   -0.0000   -0.0000   -0.0000   -0.0000   -0.0000
x    -0.0000   -0.0000    0.0000    0.0000    0.0000    0.0000    0.0000   -0.0000   -0.0000    0.0000
x     0.0000   -0.0000   -0.0000   -0.0000
y     0.0000    0.0000   -0.0000   -0.0000   -0.0000    0.0000    0.0000   -0.0000   -0.0000   -0.0000
y     0.0000   -0.0000   -0.0000    0.0000   -0.0000    0.0000    0.0000   -0.0000    0.0000   -0.0000
y     0.0000   -0.0000   -0.0000    0.0000   -0.0000   -0.0000    0.0000   -0.0000   -0.0000    0.0000
y     0.0000    0.0000    0.0000   -0.0000
z     0.0000    0.0000   -0.0000   -0.0000    0.0000    0.0000    0.0000   -0.0000   -0.0000   -0.0000
z     0.0000    0.0000   -0.0000   -0.0000   -0.0000   -0.0000    0.0000    0.0000   -0.0000   -0.0000
z     0.0000    0.0000   -0.0000   -0.0000   -0.0000    0.0000    0.0000   -0.0000   -0.0000    0.0000
z     0.0000   -0.0000   -0.0000    0.0000    0.0000   -0.0000    0.0000    0.0000   -0.0000   -0.0000
z     0.0000    0.0000   -0.0000   -0.0000    0.0000    0.0000   -0.0000   -0.0000   -0.0000    0.0000
z     0.0000   -0.0000   -0.0000    0.0000   -0.0000    0.0000    0.0000   -0.0000   -0.0000    0.0000
z     0.0000   -0.0000    0.0000    0.0000    0.0000    0.0000   -0.0000   -0.0000   -0.0000    0.0000
z     0.0000    0.0000    0.0000   -0.0000   -0.0000   -0.0000    0.0000   -0.0000   -0.0000    0.0000
z     0.0000   -0.0000   -0.0000    0.0000    0.0000    0.0000    0.0000   -0.0000   -0.0000    0.0000
z     0.0000   -0.0000    0.0000   -0.0000   -0.0000    0.0000   -0.0000   -0.0000   -0.0000    0.0000
z     0.0000   -0.0000   -0.0000    0.0000    0.0000    0.0000    0.0000   -0.0000   -0.0000    0.0000
z     0.0000    0.0000    0.0000   -0.0000   -0.0000    0.0000    0.0000   -0.0000   -0.0000   -0.0000
z    -0.0000    0.0000    0.0000   -0.0000   -0.0000    0.0000    0.0000   -0.0000   -0.0000   -0.0000
z    -0.0000    0.0000    0.0000   -0.0000   -0.0000    0.0000    0.0000    0.0000   -0.0000   -0.0000
z     0.0000    0.0000    0.0000   -0.0000   -0.0000   -0.0000    0.0000    0.0000   -0.0000   -0.0000
z     0.0000    0.0000   -0.0000   -0.0000    0.0000   -0.0000    0.0000    0.0000   -0.0000   -0.0000
z     0.0000   -0.0000
 
 soft charge-density along one line, spin component           3
         0         1         2         3         4         5         6         7         8         9
x     0.0000    0.0000    0.0000    0.0000    0.0000    0.0000    0.0000    0.0000    0.0000    0.0000
x     0.0000    0.0000    0.0000    0.0000    0.0000    0.0000    0.0000    0.0000
y     0.0000    0.0000    0.0000    0.0000    0.0000    0.0000    0.0000    0.0000    0.0000    0.0000
y     0.0000    0.0000    0.0000    0.0000    0.0000    0.0000    0.0000    0.0000
z     0.0000    0.0000    0.0000    0.0000    0.0000    0.0000    0.0000    0.0000    0.0000    0.0000
z     0.0000    0.0000    0.0000    0.0000    0.0000    0.0000    0.0000    0.0000    0.0000    0.0000
z     0.0000    0.0000    0.0000    0.0000    0.0000    0.0000    0.0000    0.0000    0.0000    0.0000
z     0.0000    0.0000    0.0000    0.0000    0.0000    0.0000    0.0000    0.0000    0.0000    0.0000
z     0.0000    0.0000    0.0000    0.0000    0.0000    0.0000    0.0000    0.0000    0.0000    0.0000
z     0.0000    0.0000    0.0000    0.0000    0.0000    0.0000    0.0000    0.0000    0.0000    0.0000
z     0.0000    0.0000    0.0000    0.0000    0.0000    0.0000    0.0000    0.0000    0.0000    0.0000
z     0.0000    0.0000    0.0000    0.0000    0.0000    0.0000    0.0000    0.0000    0.0000    0.0000
z     0.0000    0.0000
 total charge-density along one line
x     0.0000    0.0000    0.0000   -0.0000   -0.0000    0.0000    0.0000    0.0000    0.0000   -0.0000
x    -0.0000   -0.0000   -0.0000    0.0000    0.0000   -0.0000   -0.0000   -0.0000   -0.0000    0.0000
x     0.0000    0.0000    0.0000   -0.0000   -0.0000   -0.0000   -0.0000    0.0000    0.0000    0.0000
x     0.0000   -0.0000   -0.0000    0.0000
y     0.0000    0.0000   -0.0000    0.0000    0.0000    0.0000    0.0000   -0.0000   -0.0000   -0.0000
y     0.0000   -0.0000   -0.0000   -0.0000   -0.0000    0.0000    0.0000    0.0000    0.0000   -0.0000
y    -0.0000    0.0000   -0.0000    0.0000    0.0000   -0.0000    0.0000   -0.0000    0.0000   -0.0000
y    -0.0000    0.0000   -0.0000   -0.0000
z     0.0000    0.0000   -0.0000   -0.0000    0.0000   -0.0000    0.0000   -0.0000   -0.0000   -0.0000
z     0.0000   -0.0000   -0.0000    0.0000    0.0000   -0.0000    0.0000   -0.0000   -0.0000    0.0000
z     0.0000   -0.0000   -0.0000    0.0000   -0.0000   -0.0000    0.0000    0.0000    0.0000   -0.0000
z    -0.0000    0.0000    0.0000   -0.0000   -0.0000    0.0000   -0.0000   -0.0000    0.0000    0.0000
z    -0.0000   -0.0000    0.0000    0.0000   -0.0000   -0.0000   -0.0000    0.0000    0.0000   -0.0000
z    -0.0000   -0.0000    0.0000    0.0000   -0.0000   -0.0000    0.0000    0.0000    0.0000   -0.0000
z    -0.0000    0.0000    0.0000    0.0000    0.0000   -0.0000   -0.0000    0.0000    0.0000   -0.0000
z    -0.0000   -0.0000    0.0000    0.0000    0.0000   -0.0000   -0.0000    0.0000    0.0000    0.0000
z    -0.0000   -0.0000   -0.0000    0.0000    0.0000   -0.0000   -0.0000    0.0000    0.0000    0.0000
z     0.0000   -0.0000   -0.0000    0.0000    0.0000   -0.0000   -0.0000   -0.0000    0.0000    0.0000
z     0.0000   -0.0000   -0.0000    0.0000    0.0000   -0.0000   -0.0000   -0.0000    0.0000    0.0000
z     0.0000   -0.0000   -0.0000    0.0000   -0.0000   -0.0000    0.0000   -0.0000   -0.0000    0.0000
z     0.0000   -0.0000    0.0000    0.0000   -0.0000    0.0000    0.0000   -0.0000   -0.0000    0.0000
z     0.0000    0.0000   -0.0000   -0.0000   -0.0000    0.0000    0.0000    0.0000   -0.0000   -0.0000
z     0.0000    0.0000   -0.0000   -0.0000   -0.0000    0.0000    0.0000   -0.0000   -0.0000    0.0000
z     0.0000    0.0000   -0.0000   -0.0000   -0.0000    0.0000    0.0000   -0.0000    0.0000   -0.0000
z    -0.0000    0.0000
 
 soft charge-density along one line, spin component           4
         0         1         2         3         4         5         6         7         8         9
x     0.0000    0.0000    0.0000    0.0000    0.0000    0.0000    0.0000    0.0000    0.0000    0.0000
x     0.0000    0.0000    0.0000    0.0000    0.0000    0.0000    0.0000    0.0000
y     0.0000    0.0000    0.0000    0.0000    0.0000    0.0000    0.0000    0.0000    0.0000    0.0000
y     0.0000    0.0000    0.0000    0.0000    0.0000    0.0000    0.0000    0.0000
z     0.0000    0.0000    0.0000    0.0000    0.0000    0.0000    0.0000    0.0000    0.0000    0.0000
z     0.0000    0.0000    0.0000    0.0000    0.0000    0.0000    0.0000    0.0000    0.0000    0.0000
z     0.0000    0.0000    0.0000    0.0000    0.0000    0.0000    0.0000    0.0000    0.0000    0.0000
z     0.0000    0.0000    0.0000    0.0000    0.0000    0.0000    0.0000    0.0000    0.0000    0.0000
z     0.0000    0.0000    0.0000    0.0000    0.0000    0.0000    0.0000    0.0000    0.0000    0.0000
z     0.0000    0.0000    0.0000    0.0000    0.0000    0.0000    0.0000    0.0000    0.0000    0.0000
z     0.0000    0.0000    0.0000    0.0000    0.0000    0.0000    0.0000    0.0000    0.0000    0.0000
z     0.0000    0.0000    0.0000    0.0000    0.0000    0.0000    0.0000    0.0000    0.0000    0.0000
z     0.0000    0.0000
 total charge-density along one line
x    -0.0000    0.0000    0.0000   -0.0000    0.0000   -0.0000    0.0000   -0.0000    0.0000   -0.0000
x     0.0000   -0.0000    0.0000   -0.0000    0.0000    0.0000    0.0000   -0.0000    0.0000   -0.0000
x     0.0000   -0.0000    0.0000    0.0000    0.0000   -0.0000   -0.0000    0.0000    0.0000    0.0000
x     0.0000   -0.0000    0.0000   -0.0000
y    -0.0000    0.0000    0.0000    0.0000   -0.0000    0.0000   -0.0000   -0.0000    0.0000   -0.0000
y     0.0000   -0.0000   -0.0000    0.0000    0.0000    0.0000    0.0000    0.0000    0.0000   -0.0000
y     0.0000   -0.0000    0.0000   -0.0000   -0.0000    0.0000   -0.0000    0.0000   -0.0000    0.0000
y     0.0000    0.0000    0.0000    0.0000
z    -0.0000    0.0000    0.0000   -0.0000   -0.0000    0.0000   -0.0000    0.0000    0.0000   -0.0000
z    -0.0000   -0.0000    0.0000    0.0000    0.0000    0.0000   -0.0000   -0.0000    0.0000    0.0000
z    -0.0000    0.0000    0.0000   -0.0000   -0.0000    0.0000   -0.0000   -0.0000    0.0000   -0.0000
z    -0.0000    0.0000    0.0000   -0.0000   -0.0000    0.0000    0.0000   -0.0000   -0.0000   -0.0000
z     0.0000    0.0000   -0.0000   -0.0000    0.0000    0.0000   -0.0000    0.0000    0.0000   -0.0000
z    -0.0000    0.0000    0.0000   -0.0000   -0.0000    0.0000    0.0000   -0.0000   -0.0000    0.0000
z     0.0000   -0.0000   -0.0000   -0.0000    0.0000    0.0000   -0.0000   -0.0000    0.0000   -0.0000
z    -0.0000    0.0000   -0.0000   -0.0000    0.0000    0.0000   -0.0000   -0.0000    0.0000   -0.0000
z    -0.0000    0.0000   -0.0000   -0.0000   -0.0000    0.0000    0.0000    0.0000   -0.0000    0.0000
z     0.0000   -0.0000   -0.0000   -0.0000    0.0000    0.0000   -0.0000   -0.0000    0.0000   -0.0000
z    -0.0000    0.0000    0.0000   -0.0000   -0.0000   -0.0000    0.0000    0.0000   -0.0000   -0.0000
z     0.0000    0.0000   -0.0000    0.0000    0.0000   -0.0000   -0.0000    0.0000    0.0000   -0.0000
z    -0.0000   -0.0000    0.0000    0.0000   -0.0000   -0.0000    0.0000   -0.0000   -0.0000    0.0000
z     0.0000   -0.0000   -0.0000    0.0000    0.0000    0.0000   -0.0000   -0.0000    0.0000    0.0000
z    -0.0000   -0.0000   -0.0000   -0.0000    0.0000    0.0000   -0.0000   -0.0000    0.0000    0.0000
z    -0.0000    0.0000    0.0000   -0.0000   -0.0000    0.0000    0.0000   -0.0000   -0.0000    0.0000
z     0.0000   -0.0000
 
 pseudopotential strength for first ion, spin component:           1
 -9.437   0.000   0.000   0.000   0.000   0.000  -0.000   0.000   0.000   0.081  -9.628   0.000   0.000   0.000   0.000   0.000
  0.000   0.000  -9.433   0.000  -0.000   0.000  -0.000   0.041   0.000   0.000   0.000   0.000  -9.624   0.000  -0.000   0.000
  0.000   0.000  -0.000   0.000  -9.429   0.000   0.000   0.000   0.000   0.000   0.000   0.000  -0.000   0.000  -9.620   0.000
 -0.000   0.000  -0.000  -0.041   0.000   0.000  -9.433   0.000   0.000   0.000  -0.000   0.000  -0.000  -0.040   0.000   0.000
  0.000  -0.081   0.000   0.000   0.000   0.000   0.000   0.000  -9.437   0.000   0.000  -0.080   0.000   0.000   0.000   0.000
 -9.628   0.000   0.000   0.000   0.000   0.000  -0.000   0.000   0.000   0.080  -9.809   0.000   0.000   0.000   0.000   0.000
  0.000   0.000  -9.624   0.000  -0.000   0.000  -0.000   0.040   0.000   0.000   0.000   0.000  -9.804   0.000  -0.000   0.000
  0.000   0.000  -0.000   0.000  -9.620   0.000   0.000   0.000   0.000   0.000   0.000   0.000  -0.000   0.000  -9.800   0.000
 -0.000   0.000  -0.000  -0.040   0.000   0.000  -9.624   0.000   0.000   0.000  -0.000   0.000  -0.000  -0.039   0.000   0.000
  0.000  -0.080   0.000   0.000   0.000   0.000   0.000   0.000  -9.628   0.000   0.000  -0.079   0.000   0.000   0.000   0.000
  0.000   0.000   0.000   0.000  -0.003   0.000  -0.000   0.000   0.000   0.000   0.000   0.000   0.000   0.000  -0.003   0.000
  0.000   0.000   0.000   0.000  -0.006   0.000  -0.000   0.000   0.000   0.000   0.000   0.000   0.000   0.000  -0.006   0.000
  0.000   0.000  -0.000   0.000  -0.000   0.000   0.000   0.000   0.004   0.000   0.000   0.000  -0.000   0.000  -0.000   0.000
  0.000   0.000   0.000   0.000  -0.000   0.000   0.000   0.000  -0.000   0.000   0.000   0.000   0.000   0.000  -0.000   0.000
  0.004   0.000   0.000   0.000  -0.000   0.000  -0.000   0.000   0.000   0.000   0.004   0.000   0.000   0.000  -0.000   0.000
  0.000   0.000  -0.000   0.000  -0.000   0.000   0.000   0.000   0.004   0.000   0.000   0.000  -0.000   0.000  -0.000   0.000
  0.000   0.000   0.000   0.000  -0.000   0.000   0.000   0.000  -0.000   0.000   0.000   0.000   0.000   0.000  -0.000   0.000
  0.004   0.000   0.000   0.000  -0.000   0.000  -0.000   0.000   0.000   0.000   0.005   0.000   0.000   0.000  -0.000   0.000
 pseudopotential strength for first ion, spin component:           2
 -0.000  -0.000   0.041  -0.000   0.000   0.000  -0.000  -0.041  -0.000  -0.000  -0.000  -0.000   0.040  -0.000   0.000   0.000
 -0.041  -0.000  -0.000  -0.000  -0.000  -0.070  -0.000  -0.000   0.000  -0.041  -0.040  -0.000  -0.000  -0.000  -0.000  -0.069
  0.000   0.000  -0.000   0.070  -0.000  -0.000  -0.070  -0.000   0.000   0.000   0.000   0.000  -0.000   0.069  -0.000  -0.000
 -0.000   0.041  -0.000  -0.000   0.070  -0.000  -0.000  -0.000  -0.041  -0.000  -0.000   0.040  -0.000  -0.000   0.069  -0.000
 -0.000  -0.000   0.000   0.041   0.000   0.000   0.041  -0.000  -0.000  -0.000  -0.000  -0.000   0.000   0.040   0.000   0.000
 -0.000  -0.000   0.040  -0.000   0.000   0.000  -0.000  -0.040  -0.000  -0.000  -0.000  -0.000   0.039  -0.000   0.000   0.000
 -0.040  -0.000  -0.000  -0.000  -0.000  -0.069  -0.000  -0.000   0.000  -0.040  -0.039  -0.000  -0.000  -0.000  -0.000  -0.068
  0.000   0.000  -0.000   0.069  -0.000  -0.000  -0.069  -0.000   0.000   0.000   0.000   0.000  -0.000   0.068  -0.000  -0.000
 -0.000   0.040  -0.000  -0.000   0.069  -0.000  -0.000  -0.000  -0.040  -0.000  -0.000   0.039  -0.000  -0.000   0.068  -0.000
 -0.000  -0.000   0.000   0.040   0.000   0.000   0.040  -0.000  -0.000  -0.000  -0.000  -0.000   0.000   0.039   0.000   0.000
  0.000   0.000   0.000   0.000  -0.000  -0.000   0.000   0.000   0.000   0.000   0.000   0.000   0.000   0.000  -0.000  -0.000
  0.000   0.000   0.000   0.000  -0.000  -0.000   0.000   0.000   0.000   0.000   0.000   0.000   0.000   0.000  -0.000  -0.000
 -0.000  -0.000   0.000  -0.000   0.000   0.000   0.000  -0.000   0.000   0.000  -0.000  -0.000   0.000  -0.000   0.000   0.000
  0.000  -0.000  -0.000  -0.000   0.000   0.000  -0.000  -0.000  -0.000   0.000   0.000  -0.000  -0.000  -0.000   0.000   0.000
 -0.000  -0.000   0.000  -0.000   0.000   0.000  -0.000   0.000  -0.000  -0.000  -0.000  -0.000   0.000  -0.000   0.000   0.000
 -0.000  -0.000   0.000  -0.000   0.000   0.000   0.000  -0.000   0.000   0.000  -0.000  -0.000   0.000  -0.000   0.000   0.000
  0.000  -0.000  -0.000  -0.000   0.000   0.000  -0.000  -0.000  -0.000   0.000   0.000  -0.000  -0.000  -0.000   0.000   0.000
 -0.000  -0.000   0.000  -0.000   0.000   0.000  -0.000   0.000  -0.000  -0.000  -0.000  -0.000   0.000  -0.000   0.000   0.000
 pseudopotential strength for first ion, spin component:           3
 -0.000   0.000  -0.041   0.000   0.000  -0.000  -0.000  -0.041  -0.000   0.000  -0.000   0.000  -0.040   0.000   0.000  -0.000
  0.041   0.000  -0.000   0.000  -0.000  -0.070  -0.000   0.000   0.000  -0.041   0.040   0.000  -0.000   0.000  -0.000  -0.069
  0.000  -0.000  -0.000   0.070  -0.000   0.000   0.070   0.000   0.000  -0.000   0.000  -0.000  -0.000   0.069  -0.000   0.000
 -0.000   0.041  -0.000   0.000  -0.070   0.000  -0.000   0.000   0.041   0.000  -0.000   0.040  -0.000   0.000  -0.069   0.000
 -0.000   0.000   0.000   0.041   0.000  -0.000  -0.041   0.000  -0.000   0.000  -0.000   0.000   0.000   0.040   0.000  -0.000
 -0.000   0.000  -0.040   0.000   0.000  -0.000  -0.000  -0.040  -0.000   0.000  -0.000   0.000  -0.039   0.000   0.000  -0.000
  0.040   0.000  -0.000   0.000  -0.000  -0.069  -0.000   0.000   0.000  -0.040   0.039   0.000  -0.000   0.000  -0.000  -0.068
  0.000  -0.000  -0.000   0.069  -0.000   0.000   0.069   0.000   0.000  -0.000   0.000  -0.000  -0.000   0.068  -0.000   0.000
 -0.000   0.040  -0.000   0.000  -0.069   0.000  -0.000   0.000   0.040   0.000  -0.000   0.039  -0.000   0.000  -0.068   0.000
 -0.000   0.000   0.000   0.040   0.000  -0.000  -0.040   0.000  -0.000   0.000  -0.000   0.000   0.000   0.039   0.000  -0.000
  0.000  -0.000   0.000  -0.000  -0.000   0.000   0.000  -0.000   0.000  -0.000   0.000  -0.000   0.000  -0.000  -0.000   0.000
  0.000  -0.000   0.000  -0.000  -0.000   0.000   0.000  -0.000   0.000  -0.000   0.000  -0.000   0.000  -0.000  -0.000   0.000
 -0.000   0.000   0.000   0.000   0.000  -0.000   0.000   0.000   0.000  -0.000  -0.000   0.000   0.000   0.000   0.000  -0.000
  0.000   0.000  -0.000   0.000   0.000  -0.000  -0.000   0.000  -0.000  -0.000   0.000   0.000  -0.000   0.000   0.000  -0.000
 -0.000   0.000   0.000   0.000   0.000  -0.000  -0.000  -0.000  -0.000   0.000  -0.000   0.000   0.000   0.000   0.000  -0.000
 -0.000   0.000   0.000   0.000   0.000  -0.000   0.000   0.000   0.000  -0.000  -0.000   0.000   0.000   0.000   0.000  -0.000
  0.000   0.000  -0.000   0.000   0.000  -0.000  -0.000   0.000  -0.000  -0.000   0.000   0.000  -0.000   0.000   0.000  -0.000
 -0.000   0.000   0.000   0.000   0.000  -0.000  -0.000  -0.000  -0.000   0.000  -0.000   0.000   0.000   0.000   0.000  -0.000
 pseudopotential strength for first ion, spin component:           4
 -9.437   0.000   0.000   0.000   0.000   0.000  -0.000   0.000   0.000  -0.081  -9.628   0.000   0.000   0.000   0.000   0.000
  0.000   0.000  -9.433   0.000  -0.000   0.000  -0.000  -0.041   0.000   0.000   0.000   0.000  -9.624   0.000  -0.000   0.000
  0.000   0.000  -0.000   0.000  -9.429   0.000   0.000   0.000   0.000   0.000   0.000   0.000  -0.000   0.000  -9.620   0.000
 -0.000   0.000  -0.000   0.041   0.000   0.000  -9.433   0.000   0.000   0.000  -0.000   0.000  -0.000   0.040   0.000   0.000
  0.000   0.081   0.000   0.000   0.000   0.000   0.000   0.000  -9.437   0.000   0.000   0.080   0.000   0.000   0.000   0.000
 -9.628   0.000   0.000   0.000   0.000   0.000  -0.000   0.000   0.000  -0.080  -9.809   0.000   0.000   0.000   0.000   0.000
  0.000   0.000  -9.624   0.000  -0.000   0.000  -0.000  -0.040   0.000   0.000   0.000   0.000  -9.804   0.000  -0.000   0.000
  0.000   0.000  -0.000   0.000  -9.620   0.000   0.000   0.000   0.000   0.000   0.000   0.000  -0.000   0.000  -9.800   0.000
 -0.000   0.000  -0.000   0.040   0.000   0.000  -9.624   0.000   0.000   0.000  -0.000   0.000  -0.000   0.039   0.000   0.000
  0.000   0.080   0.000   0.000   0.000   0.000   0.000   0.000  -9.628   0.000   0.000   0.079   0.000   0.000   0.000   0.000
  0.000   0.000   0.000   0.000  -0.003   0.000  -0.000   0.000   0.000   0.000   0.000   0.000   0.000   0.000  -0.003   0.000
  0.000   0.000   0.000   0.000  -0.006   0.000  -0.000   0.000   0.000   0.000   0.000   0.000   0.000   0.000  -0.006   0.000
  0.000   0.000  -0.000   0.000  -0.000   0.000   0.000   0.000   0.004   0.000   0.000   0.000  -0.000   0.000  -0.000   0.000
  0.000   0.000   0.000   0.000  -0.000   0.000   0.000   0.000  -0.000   0.000   0.000   0.000   0.000   0.000  -0.000   0.000
  0.004   0.000   0.000   0.000  -0.000   0.000  -0.000   0.000   0.000   0.000   0.004   0.000   0.000   0.000  -0.000   0.000
  0.000   0.000  -0.000   0.000  -0.000   0.000   0.000   0.000   0.004   0.000   0.000   0.000  -0.000   0.000  -0.000   0.000
  0.000   0.000   0.000   0.000  -0.000   0.000   0.000   0.000  -0.000   0.000   0.000   0.000   0.000   0.000  -0.000   0.000
  0.004   0.000   0.000   0.000  -0.000   0.000  -0.000   0.000   0.000   0.000   0.005   0.000   0.000   0.000  -0.000   0.000
 total augmentation occupancy for first ion, spin component:           1
  1.000   0.000   0.000   0.000   0.000   0.000   0.000   0.000   0.000   0.000   0.000   0.000   0.000   0.000   0.000   0.000
  0.000   1.000   0.000   0.000   0.000   0.000   0.000   0.000   0.000   0.000   0.000   0.000   0.000   0.000   0.000   0.000
  0.000   0.000   1.000   0.000   0.000   0.000   0.000   0.000   0.000   0.000   0.000   0.000   0.000   0.000   0.000   0.000
  0.000   0.000   0.000   1.000   0.000   0.000   0.000   0.000   0.000   0.000   0.000   0.000   0.000   0.000   0.000   0.000
  0.000   0.000   0.000   0.000   1.000   0.000   0.000   0.000   0.000   0.000   0.000   0.000   0.000   0.000   0.000   0.000
  0.000   0.000   0.000   0.000   0.000   0.000   0.000   0.000   0.000   0.000   0.000   0.000   0.000   0.000   0.000   0.000
  0.000   0.000   0.000   0.000   0.000   0.000   0.000   0.000   0.000   0.000   0.000   0.000   0.000   0.000   0.000   0.000
  0.000   0.000   0.000   0.000   0.000   0.000   0.000   0.000   0.000   0.000   0.000   0.000   0.000   0.000   0.000   0.000
  0.000   0.000   0.000   0.000   0.000   0.000   0.000   0.000   0.000   0.000   0.000   0.000   0.000   0.000   0.000   0.000
  0.000   0.000   0.000   0.000   0.000   0.000   0.000   0.000   0.000   0.000   0.000   0.000   0.000   0.000   0.000   0.000
  0.000   0.000   0.000   0.000   0.000   0.000   0.000   0.000   0.000   0.000   1.000   0.000   0.000   0.000   0.000   0.000
  0.000   0.000   0.000   0.000   0.000   0.000   0.000   0.000   0.000   0.000   0.000   0.000   0.000   0.000   0.000   0.000
  0.000   0.000   0.000   0.000   0.000   0.000   0.000   0.000   0.000   0.000   0.000   0.000   0.000   0.000   0.000   0.000
  0.000   0.000   0.000   0.000   0.000   0.000   0.000   0.000   0.000   0.000   0.000   0.000   0.000   0.000   0.000   0.000
  0.000   0.000   0.000   0.000   0.000   0.000   0.000   0.000   0.000   0.000   0.000   0.000   0.000   0.000   0.000   0.000
  0.000   0.000   0.000   0.000   0.000   0.000   0.000   0.000   0.000   0.000   0.000   0.000   0.000   0.000   0.000   0.000
  0.000   0.000   0.000   0.000   0.000   0.000   0.000   0.000   0.000   0.000   0.000   0.000   0.000   0.000   0.000   0.000
  0.000   0.000   0.000   0.000   0.000   0.000   0.000   0.000   0.000   0.000   0.000   0.000   0.000   0.000   0.000   0.000
 total augmentation occupancy for first ion, spin component:           2
  0.000   0.000   0.000   0.000   0.000   0.000   0.000   0.000   0.000   0.000   0.000   0.000   0.000   0.000   0.000   0.000
  0.000   0.000   0.000   0.000   0.000   0.000   0.000   0.000   0.000   0.000   0.000   0.000   0.000   0.000   0.000   0.000
  0.000   0.000   0.000   0.000   0.000   0.000   0.000   0.000   0.000   0.000   0.000   0.000   0.000   0.000   0.000   0.000
  0.000   0.000   0.000   0.000   0.000   0.000   0.000   0.000   0.000   0.000   0.000   0.000   0.000   0.000   0.000   0.000
  0.000   0.000   0.000   0.000   0.000   0.000   0.000   0.000   0.000   0.000   0.000   0.000   0.000   0.000   0.000   0.000
  0.000   0.000   0.000   0.000   0.000   0.000   0.000   0.000   0.000   0.000   0.000   0.000   0.000   0.000   0.000   0.000
  0.000   0.000   0.000   0.000   0.000   0.000   0.000   0.000   0.000   0.000   0.000   0.000   0.000   0.000   0.000   0.000
  0.000   0.000   0.000   0.000   0.000   0.000   0.000   0.000   0.000   0.000   0.000   0.000   0.000   0.000   0.000   0.000
  0.000   0.000   0.000   0.000   0.000   0.000   0.000   0.000   0.000   0.000   0.000   0.000   0.000   0.000   0.000   0.000
  0.000   0.000   0.000   0.000   0.000   0.000   0.000   0.000   0.000   0.000   0.000   0.000   0.000   0.000   0.000   0.000
  0.000   0.000   0.000   0.000   0.000   0.000   0.000   0.000   0.000   0.000   0.000   0.000   0.000   0.000   0.000   0.000
  0.000   0.000   0.000   0.000   0.000   0.000   0.000   0.000   0.000   0.000   0.000   0.000   0.000   0.000   0.000   0.000
  0.000   0.000   0.000   0.000   0.000   0.000   0.000   0.000   0.000   0.000   0.000   0.000   0.000   0.000   0.000   0.000
  0.000   0.000   0.000   0.000   0.000   0.000   0.000   0.000   0.000   0.000   0.000   0.000   0.000   0.000   0.000   0.000
  0.000   0.000   0.000   0.000   0.000   0.000   0.000   0.000   0.000   0.000   0.000   0.000   0.000   0.000   0.000   0.000
  0.000   0.000   0.000   0.000   0.000   0.000   0.000   0.000   0.000   0.000   0.000   0.000   0.000   0.000   0.000   0.000
  0.000   0.000   0.000   0.000   0.000   0.000   0.000   0.000   0.000   0.000   0.000   0.000   0.000   0.000   0.000   0.000
  0.000   0.000   0.000   0.000   0.000   0.000   0.000   0.000   0.000   0.000   0.000   0.000   0.000   0.000   0.000   0.000
 total augmentation occupancy for first ion, spin component:           3
  0.000   0.000   0.000   0.000   0.000   0.000   0.000   0.000   0.000   0.000   0.000   0.000   0.000   0.000   0.000   0.000
  0.000   0.000   0.000   0.000   0.000   0.000   0.000   0.000   0.000   0.000   0.000   0.000   0.000   0.000   0.000   0.000
  0.000   0.000   0.000   0.000   0.000   0.000   0.000   0.000   0.000   0.000   0.000   0.000   0.000   0.000   0.000   0.000
  0.000   0.000   0.000   0.000   0.000   0.000   0.000   0.000   0.000   0.000   0.000   0.000   0.000   0.000   0.000   0.000
  0.000   0.000   0.000   0.000   0.000   0.000   0.000   0.000   0.000   0.000   0.000   0.000   0.000   0.000   0.000   0.000
  0.000   0.000   0.000   0.000   0.000   0.000   0.000   0.000   0.000   0.000   0.000   0.000   0.000   0.000   0.000   0.000
  0.000   0.000   0.000   0.000   0.000   0.000   0.000   0.000   0.000   0.000   0.000   0.000   0.000   0.000   0.000   0.000
  0.000   0.000   0.000   0.000   0.000   0.000   0.000   0.000   0.000   0.000   0.000   0.000   0.000   0.000   0.000   0.000
  0.000   0.000   0.000   0.000   0.000   0.000   0.000   0.000   0.000   0.000   0.000   0.000   0.000   0.000   0.000   0.000
  0.000   0.000   0.000   0.000   0.000   0.000   0.000   0.000   0.000   0.000   0.000   0.000   0.000   0.000   0.000   0.000
  0.000   0.000   0.000   0.000   0.000   0.000   0.000   0.000   0.000   0.000   0.000   0.000   0.000   0.000   0.000   0.000
  0.000   0.000   0.000   0.000   0.000   0.000   0.000   0.000   0.000   0.000   0.000   0.000   0.000   0.000   0.000   0.000
  0.000   0.000   0.000   0.000   0.000   0.000   0.000   0.000   0.000   0.000   0.000   0.000   0.000   0.000   0.000   0.000
  0.000   0.000   0.000   0.000   0.000   0.000   0.000   0.000   0.000   0.000   0.000   0.000   0.000   0.000   0.000   0.000
  0.000   0.000   0.000   0.000   0.000   0.000   0.000   0.000   0.000   0.000   0.000   0.000   0.000   0.000   0.000   0.000
  0.000   0.000   0.000   0.000   0.000   0.000   0.000   0.000   0.000   0.000   0.000   0.000   0.000   0.000   0.000   0.000
  0.000   0.000   0.000   0.000   0.000   0.000   0.000   0.000   0.000   0.000   0.000   0.000   0.000   0.000   0.000   0.000
  0.000   0.000   0.000   0.000   0.000   0.000   0.000   0.000   0.000   0.000   0.000   0.000   0.000   0.000   0.000   0.000
 total augmentation occupancy for first ion, spin component:           4
  0.000   0.000   0.000   0.000   0.000   0.000   0.000   0.000   0.000   0.000   0.000   0.000   0.000   0.000   0.000   0.000
  0.000   0.000   0.000   0.000   0.000   0.000   0.000   0.000   0.000   0.000   0.000   0.000   0.000   0.000   0.000   0.000
  0.000   0.000   0.000   0.000   0.000   0.000   0.000   0.000   0.000   0.000   0.000   0.000   0.000   0.000   0.000   0.000
  0.000   0.000   0.000   0.000   0.000   0.000   0.000   0.000   0.000   0.000   0.000   0.000   0.000   0.000   0.000   0.000
  0.000   0.000   0.000   0.000   0.000   0.000   0.000   0.000   0.000   0.000   0.000   0.000   0.000   0.000   0.000   0.000
  0.000   0.000   0.000   0.000   0.000   0.000   0.000   0.000   0.000   0.000   0.000   0.000   0.000   0.000   0.000   0.000
  0.000   0.000   0.000   0.000   0.000   0.000   0.000   0.000   0.000   0.000   0.000   0.000   0.000   0.000   0.000   0.000
  0.000   0.000   0.000   0.000   0.000   0.000   0.000   0.000   0.000   0.000   0.000   0.000   0.000   0.000   0.000   0.000
  0.000   0.000   0.000   0.000   0.000   0.000   0.000   0.000   0.000   0.000   0.000   0.000   0.000   0.000   0.000   0.000
  0.000   0.000   0.000   0.000   0.000   0.000   0.000   0.000   0.000   0.000   0.000   0.000   0.000   0.000   0.000   0.000
  0.000   0.000   0.000   0.000   0.000   0.000   0.000   0.000   0.000   0.000   0.000   0.000   0.000   0.000   0.000   0.000
  0.000   0.000   0.000   0.000   0.000   0.000   0.000   0.000   0.000   0.000   0.000   0.000   0.000   0.000   0.000   0.000
  0.000   0.000   0.000   0.000   0.000   0.000   0.000   0.000   0.000   0.000   0.000   0.000   0.000   0.000   0.000   0.000
  0.000   0.000   0.000   0.000   0.000   0.000   0.000   0.000   0.000   0.000   0.000   0.000   0.000   0.000   0.000   0.000
  0.000   0.000   0.000   0.000   0.000   0.000   0.000   0.000   0.000   0.000   0.000   0.000   0.000   0.000   0.000   0.000
  0.000   0.000   0.000   0.000   0.000   0.000   0.000   0.000   0.000   0.000   0.000   0.000   0.000   0.000   0.000   0.000
  0.000   0.000   0.000   0.000   0.000   0.000   0.000   0.000   0.000   0.000   0.000   0.000   0.000   0.000   0.000   0.000
  0.000   0.000   0.000   0.000   0.000   0.000   0.000   0.000   0.000   0.000   0.000   0.000   0.000   0.000   0.000   0.000


------------------------ aborting loop because EDIFF is reached ----------------------------------------


    CHARGE:  cpu time    1.4344: real time    1.4357
    FORLOC:  cpu time    0.0073: real time    0.0074
    FORNL :  cpu time    2.4304: real time    2.4332
    STRESS:  cpu time    3.3210: real time    3.3235
    FORCOR:  cpu time    0.2057: real time    0.2060
    FORHAR:  cpu time    0.0212: real time    0.0212
    OFIELD:  cpu time    0.0013: real time    0.0013

  FORCE on cell =-STRESS in cart. coord.  units (eV):
  Direction    XX          YY          ZZ          XY          YZ          ZX
  --------------------------------------------------------------------------------------
  Alpha Z    22.68957    22.68957    22.68957
  Ewald    1710.32592  1710.32592 -2277.33784    -0.00000     0.00000     0.00000
  Hartree  1820.61725  1820.61992 -1784.98547     0.00003     0.00000    -0.00000
  E(xc)     -70.71411   -70.71711   -69.32707    -0.00001    -0.00000    -0.00000
  Local   -3829.73599 -3829.75875  3769.87932    -0.00016    -0.00001     0.00001
  n-local   132.57446   132.57497   148.17762     0.00010     0.00001    -0.00001
  augment   -27.30234   -27.30159   -31.11441    -0.00014    -0.00000    -0.00000
  Kinetic   236.32276   236.34449   224.52577    -0.00003    -0.00000     0.00000
  Fock        0.00000     0.00000     0.00000     0.00000     0.00000     0.00000
  -------------------------------------------------------------------------------------
  Total      -5.22248    -5.22257     2.50749    -0.00021    -0.00000     0.00000
  in kB     -64.03235   -64.03338    30.74406    -0.00256    -0.00001     0.00005
  external pressure =      -32.44 kB  Pullay stress =        0.00 kB


 VOLUME and BASIS-vectors are now :
 -----------------------------------------------------------------------------
  energy-cutoff  :      400.00
  volume of cell :      130.67
      direct lattice vectors                 reciprocal lattice vectors
     3.171634303  0.000000000  0.000000000     0.315294862 -0.182035573  0.000000000
     1.585817152  2.746715878  0.000000000     0.000000000  0.364071147  0.000000000
     0.000000000  0.000000000 15.000000000     0.000000000 -0.000000000  0.066666667

  length of vectors
     3.171634303  3.171634303 15.000000000     0.364071147  0.364071147  0.066666667


 FORCES acting on ions
    electron-ion (+dipol)            ewald-force                    non-local-force                 convergence-correction
 -----------------------------------------------------------------------------------------------
   0.670E-04 -.879E-03 0.489E-05   0.241E-11 0.154E-11 0.000E+00   -.370E-06 -.502E-03 0.192E-05   -.659E-04 0.409E-03 -.480E-05
   -.480E-03 0.171E-02 -.455E+03   -.120E-11 -.781E-12 0.485E+03   0.272E-03 -.135E-03 -.112E+02   0.202E-03 -.992E-03 -.156E+02
   -.457E-03 0.169E-02 0.455E+03   -.120E-11 -.759E-12 -.485E+03   0.263E-03 -.127E-03 0.112E+02   0.197E-03 -.991E-03 0.156E+02
 -----------------------------------------------------------------------------------------------
   -.870E-03 0.252E-02 0.265E-04   0.105E-13 -.293E-14 0.000E+00   0.535E-03 -.765E-03 -.316E-05   0.333E-03 -.157E-02 -.143E-04
 
 
 POSITION                                       TOTAL-FORCE (eV/Angst)
 -----------------------------------------------------------------------------------
      0.00000      0.00000      7.50000         0.000002     -0.001033     -0.000001
      1.58582      0.91557      9.09686        -0.000005      0.000518      2.410905
      1.58582      0.91557      5.90314         0.000003      0.000515     -2.410904
 -----------------------------------------------------------------------------------
    total drift:                               -0.000003      0.000181      0.000009


--------------------------------------------------------------------------------------------------------



  FREE ENERGIE OF THE ION-ELECTRON SYSTEM (eV)
  ---------------------------------------------------
  free  energy   TOTEN  =       -24.73192689 eV

  energy  without entropy=      -24.73192689  energy(sigma->0) =      -24.73192689
 


--------------------------------------------------------------------------------------------------------


    POTLOK:  cpu time    0.2137: real time    0.2139


--------------------------------------------------------------------------------------------------------


 writing wavefunctions
     LOOP+:  cpu time  158.3992: real time  158.5664
    4ORBIT:  cpu time    0.0000: real time    0.0000

 Spin-Orbit-Coupling matrix elements

 Ion:    1  E_soc:     -0.0274421
 l=   1
     0.0000000    -0.0022644    -0.0026391
    -0.0022644     0.0000000    -0.0022642
    -0.0026391    -0.0022642     0.0000000
 l=   2
     0.0000000    -0.0005013     0.0000000    -0.0005012    -0.0020262
    -0.0005013     0.0000000    -0.0010829    -0.0003571    -0.0005015
     0.0000000    -0.0010829     0.0000000    -0.0010824     0.0000000
    -0.0005012    -0.0003571    -0.0010824     0.0000000    -0.0005009
    -0.0020262    -0.0005015     0.0000000    -0.0005009     0.0000000
 l=   3
     0.0000000     0.0000000     0.0000000     0.0000000     0.0000000     0.0000000     0.0000000
     0.0000000     0.0000000     0.0000000     0.0000000     0.0000000     0.0000000     0.0000000
     0.0000000     0.0000000     0.0000000     0.0000000     0.0000000     0.0000000     0.0000000
     0.0000000     0.0000000     0.0000000     0.0000000     0.0000000     0.0000000     0.0000000
     0.0000000     0.0000000     0.0000000     0.0000000     0.0000000     0.0000000     0.0000000
     0.0000000     0.0000000     0.0000000     0.0000000     0.0000000     0.0000000     0.0000000
     0.0000000     0.0000000     0.0000000     0.0000000     0.0000000     0.0000000     0.0000000

 Ion:    2  E_soc:     -0.0019863
 l=   1
     0.0000000    -0.0003541    -0.0002849
    -0.0003541     0.0000000    -0.0003542
    -0.0002849    -0.0003542     0.0000000
 l=   2
     0.0000000     0.0000000     0.0000000     0.0000000     0.0000000
     0.0000000     0.0000000     0.0000000     0.0000000     0.0000000
     0.0000000     0.0000000     0.0000000     0.0000000     0.0000000
     0.0000000     0.0000000     0.0000000     0.0000000     0.0000000
     0.0000000     0.0000000     0.0000000     0.0000000     0.0000000
 l=   3
     0.0000000     0.0000000     0.0000000     0.0000000     0.0000000     0.0000000     0.0000000
     0.0000000     0.0000000     0.0000000     0.0000000     0.0000000     0.0000000     0.0000000
     0.0000000     0.0000000     0.0000000     0.0000000     0.0000000     0.0000000     0.0000000
     0.0000000     0.0000000     0.0000000     0.0000000     0.0000000     0.0000000     0.0000000
     0.0000000     0.0000000     0.0000000     0.0000000     0.0000000     0.0000000     0.0000000
     0.0000000     0.0000000     0.0000000     0.0000000     0.0000000     0.0000000     0.0000000
     0.0000000     0.0000000     0.0000000     0.0000000     0.0000000     0.0000000     0.0000000

 Ion:    3  E_soc:     -0.0019863
 l=   1
     0.0000000    -0.0003541    -0.0002849
    -0.0003541     0.0000000    -0.0003542
    -0.0002849    -0.0003542     0.0000000
 l=   2
     0.0000000     0.0000000     0.0000000     0.0000000     0.0000000
     0.0000000     0.0000000     0.0000000     0.0000000     0.0000000
     0.0000000     0.0000000     0.0000000     0.0000000     0.0000000
     0.0000000     0.0000000     0.0000000     0.0000000     0.0000000
     0.0000000     0.0000000     0.0000000     0.0000000     0.0000000
 l=   3
     0.0000000     0.0000000     0.0000000     0.0000000     0.0000000     0.0000000     0.0000000
     0.0000000     0.0000000     0.0000000     0.0000000     0.0000000     0.0000000     0.0000000
     0.0000000     0.0000000     0.0000000     0.0000000     0.0000000     0.0000000     0.0000000
     0.0000000     0.0000000     0.0000000     0.0000000     0.0000000     0.0000000     0.0000000
     0.0000000     0.0000000     0.0000000     0.0000000     0.0000000     0.0000000     0.0000000
     0.0000000     0.0000000     0.0000000     0.0000000     0.0000000     0.0000000     0.0000000
     0.0000000     0.0000000     0.0000000     0.0000000     0.0000000     0.0000000     0.0000000

 total amount of memory used by VASP MPI-rank0   507382. kBytes
=======================================================================

   base      :      30000. kBytes
   nonl-proj :     110828. kBytes
   grid      :      41943. kBytes
   one-center:        186. kBytes
   wavefun   :     324425. kBytes
 
  
  
 General timing and accounting informations for this job:
 ========================================================
  
                  Total CPU time used (sec):      160.297
                            User time (sec):      159.779
                          System time (sec):        0.518
                         Elapsed time (sec):      160.455
  
                   Maximum memory used (kb):   655597568.
                   Average memory used (kb):           0.
  
                          Minor page faults:       160901
                          Major page faults:          263
                 Voluntary context switches:           55
