       N       E                     dE             d eps       ncg     rms          rms(c)
DAV:   1     0.988980688857E+02    0.98898E+02   -0.49060E+03  1224   0.360E+02
DAV:   2    -0.121643441104E+02   -0.11106E+03   -0.10166E+03  1564   0.104E+02
DAV:   3    -0.231765014791E+02   -0.11012E+02   -0.10795E+02  1536   0.324E+01
DAV:   4    -0.233943486048E+02   -0.21785E+00   -0.21765E+00  1456   0.544E+00
DAV:   5    -0.233999951397E+02   -0.56465E-02   -0.56460E-02  1612   0.848E-01    0.241E+01
DAV:   6    -0.222605727440E+02    0.11394E+01   -0.20228E+00  1448   0.857E+00    0.833E+00
DAV:   7    -0.220943196156E+02    0.16625E+00   -0.14564E+00  1380   0.792E+00    0.735E+00
DAV:   8    -0.218002335648E+02    0.29409E+00   -0.22150E-01  1440   0.326E+00    0.960E-01
DAV:   9    -0.218009796029E+02   -0.74604E-03   -0.67679E-02  1472   0.113E+00    0.353E-01
DAV:  10    -0.217989419640E+02    0.20376E-02   -0.14710E-03  1540   0.190E-01    0.160E-01
DAV:  11    -0.217984622119E+02    0.47975E-03   -0.61020E-04  1408   0.100E-01    0.120E-01
DAV:  12    -0.217981345546E+02    0.32766E-03   -0.20396E-04  1412   0.549E-02    0.480E-02
DAV:  13    -0.217979917872E+02    0.14277E-03   -0.90918E-05  1388   0.411E-02    0.439E-02
DAV:  14    -0.217981179067E+02   -0.12612E-03   -0.28158E-05  1392   0.183E-02    0.258E-02
DAV:  15    -0.217982180623E+02   -0.10016E-03   -0.49060E-06  1416   0.863E-03    0.110E-02
DAV:  16    -0.217983957257E+02   -0.17766E-03   -0.40259E-06  1360   0.868E-03    0.474E-03
DAV:  17    -0.217984643630E+02   -0.68637E-04   -0.17194E-06  1384   0.420E-03    0.385E-03
DAV:  18    -0.217985013656E+02   -0.37003E-04   -0.29221E-07  1328   0.232E-03    0.193E-03
DAV:  19    -0.217985402417E+02   -0.38876E-04   -0.83018E-07  1348   0.202E-03    0.250E-03
DAV:  20    -0.217985494863E+02   -0.92445E-05   -0.10631E-07  1280   0.820E-04    0.135E-03
DAV:  21    -0.217985569454E+02   -0.74591E-05   -0.72062E-08  1296   0.682E-04    0.556E-04
DAV:  22    -0.217985605600E+02   -0.36147E-05   -0.35215E-08  1236   0.486E-04    0.521E-04
DAV:  23    -0.217985615538E+02   -0.99376E-06   -0.51862E-09  1176   0.207E-04    0.138E-04
DAV:  24    -0.217985621024E+02   -0.54860E-06   -0.24943E-09  1096   0.137E-04    0.119E-04
DAV:  25    -0.217985621896E+02   -0.87194E-07    0.97897E-10  1116   0.504E-05
   1 F= -.21798562E+02 E0= -.21798562E+02  d E =-.226416E-29  mag=    -0.0000    -0.0000     0.0000
