       N       E                     dE             d eps       ncg     rms          rms(c)
DAV:   1     0.192081808178E+03    0.19208E+03   -0.11975E+04  6384   0.735E+02
DAV:   2    -0.217859647233E+02   -0.21387E+03   -0.19708E+03  8200   0.188E+02
DAV:   3    -0.419689569029E+02   -0.20183E+02   -0.19623E+02  7520   0.569E+01
DAV:   4    -0.425007168048E+02   -0.53176E+00   -0.52977E+00  7904   0.104E+01
DAV:   5    -0.425145906128E+02   -0.13874E-01   -0.13870E-01  7632   0.165E+00
DAV:   6    -0.425151519724E+02   -0.56136E-03   -0.56132E-03  8040   0.340E-01
DAV:   7    -0.425151780470E+02   -0.26075E-04   -0.26074E-04  7672   0.675E-02
DAV:   8    -0.425151794287E+02   -0.13817E-05   -0.13816E-05  8064   0.154E-02
DAV:   9    -0.425151795031E+02   -0.74439E-07   -0.74424E-07  7480   0.334E-03
DAV:  10    -0.425151795074E+02   -0.42592E-08   -0.42379E-08  6536   0.788E-04
   1 F= -.42515180E+02 E0= -.42515180E+02  d E =-.248326E-18  mag=    -0.0000     0.0000     0.0000
 imaginary and real dielectric function
