       N       E                     dE             d eps       ncg     rms          rms(c)
DAV:   1    -0.435498630988E+02   -0.43550E+02   -0.20107E-05  2832   0.109E-01    0.238E-02
DAV:   2    -0.435498261378E+02    0.36961E-04   -0.60780E-06  2464   0.374E-02    0.793E-03
DAV:   3    -0.435498210421E+02    0.50957E-05   -0.76590E-06  2256   0.111E-02    0.554E-03
DAV:   4    -0.435498146036E+02    0.64385E-05   -0.63580E-07  2320   0.871E-03    0.323E-03
DAV:   5    -0.435498049037E+02    0.96999E-05   -0.11663E-06  2640   0.159E-02    0.300E-03
DAV:   6    -0.435498009406E+02    0.39631E-05   -0.12570E-06  2384   0.916E-03    0.284E-03
DAV:   7    -0.435497991510E+02    0.17895E-05   -0.70720E-07  2552   0.697E-03    0.290E-03
DAV:   8    -0.435497982757E+02    0.87534E-06   -0.71012E-07  2512   0.123E-02    0.173E-03
DAV:   9    -0.435497981688E+02    0.10688E-06   -0.58885E-07  2448   0.112E-02    0.144E-03
DAV:  10    -0.435497988469E+02   -0.67807E-06   -0.84020E-07  2208   0.284E-03    0.151E-03
DAV:  11    -0.435497986909E+02    0.15601E-06   -0.17513E-08  1680   0.427E-04    0.154E-03
DAV:  12    -0.435497986600E+02    0.30881E-07   -0.14980E-09  1832   0.179E-04
   1 F= -.43549799E+02 E0= -.43549799E+02  d E =-.592403E-26  mag=     0.0000    -0.0000    -0.0000
