    3    3    1    1
  0.6969263E+02  0.3171634E-09  0.3171634E-09  0.2400000E-08  0.5000000E-15
  1.000000000000000E-004
  CAR 
 MoS2 monolayer fixed-geometry PBE SOC   
     18     49     60
 
  0.0000000E+00  0.0000000E+00  0.0000000E+00  0.2040816E-01
    1      -17.062131   1.000000
    2      -17.062131   1.000000
    3      -15.947518   1.000000
    4      -15.947518   1.000000
    5       -8.598019   1.000000
    6       -8.598019   1.000000
    7       -5.510755   1.000000
    8       -5.510755   1.000000
    9       -5.440905   1.000000
   10       -5.440905   1.000000
   11       -4.926699   1.000000
   12       -4.926699   1.000000
   13       -4.439621   1.000000
   14       -4.439621   1.000000
   15       -4.353039   1.000000
   16       -4.353039   1.000000
   17       -3.224552   1.000000
   18       -3.224552   1.000000
   19       -0.315587   0.000000
   20       -0.315587   0.000000
   21       -0.240583   0.000000
   22       -0.240583   0.000000
   23       -0.117790   0.000000
   24       -0.117790   0.000000
   25       -0.110688   0.000000
   26       -0.110688   0.000000
   27        2.302723   0.000000
   28        2.302723   0.000000
   29        2.484522   0.000000
   30        2.484522   0.000000
   31        2.997119   0.000000
   32        2.997119   0.000000
   33        3.577539   0.000000
   34        3.577539   0.000000
   35        3.707045   0.000000
   36        3.707045   0.000000
   37        4.518749   0.000000
   38        4.518749   0.000000
   39        5.531117   0.000000
   40        5.531117   0.000000
   41        6.090703   0.000000
   42        6.090703   0.000000
   43        6.508705   0.000000
   44        6.508705   0.000000
   45        7.983590   0.000000
   46        7.983590   0.000000
   47        8.061551   0.000000
   48        8.061551   0.000000
   49        8.063953   0.000000
   50        8.063953   0.000000
   51        8.793702   0.000000
   52        8.793702   0.000000
   53        9.944728   0.000000
   54        9.944728   0.000000
   55        9.967623   0.000000
   56        9.967623   0.000000
   57        9.996195   0.000000
   58        9.996195   0.000000
   59       11.208698   0.000000
   60       11.208698   0.000000
 
  0.0000000E+00  0.4166667E-01  0.0000000E+00  0.2040816E-01
    1      -17.037278   1.000000
    2      -17.037278   1.000000
    3      -15.934767   1.000000
    4      -15.934767   1.000000
    5       -8.567615   1.000000
    6       -8.567615   1.000000
    7       -5.548724   1.000000
    8       -5.548724   1.000000
    9       -5.437175   1.000000
   10       -5.437175   1.000000
   11       -5.050757   1.000000
   12       -5.050757   1.000000
   13       -4.449713   1.000000
   14       -4.449712   1.000000
   15       -4.301792   1.000000
   16       -4.301791   1.000000
   17       -3.232778   1.000000
   18       -3.232778   1.000000
   19       -0.335964   0.000000
   20       -0.335963   0.000000
   21       -0.237053   0.000000
   22       -0.237053   0.000000
   23       -0.184595   0.000000
   24       -0.184593   0.000000
   25       -0.139233   0.000000
   26       -0.139233   0.000000
   27        2.351910   0.000000
   28        2.351910   0.000000
   29        2.519297   0.000000
   30        2.519297   0.000000
   31        3.039391   0.000000
   32        3.039391   0.000000
   33        3.683623   0.000000
   34        3.683623   0.000000
   35        3.741157   0.000000
   36        3.741157   0.000000
   37        4.558750   0.000000
   38        4.558750   0.000000
   39        5.563510   0.000000
   40        5.563510   0.000000
   41        6.219448   0.000000
   42        6.219448   0.000000
   43        6.536017   0.000000
   44        6.536017   0.000000
   45        7.890709   0.000000
   46        7.890710   0.000000
   47        8.089806   0.000000
   48        8.089806   0.000000
   49        8.114885   0.000000
   50        8.114885   0.000000
   51        8.881046   0.000000
   52        8.881047   0.000000
   53        9.731702   0.000000
   54        9.731702   0.000000
   55        9.965446   0.000000
   56        9.965446   0.000000
   57        9.991096   0.000000
   58        9.991097   0.000000
   59       11.233755   0.000000
   60       11.233755   0.000000
 
  0.0000000E+00  0.8333333E-01  0.0000000E+00  0.2040816E-01
    1      -16.963575   1.000000
    2      -16.963575   1.000000
    3      -15.896987   1.000000
    4      -15.896987   1.000000
    5       -8.479242   1.000000
    6       -8.479242   1.000000
    7       -5.711940   1.000000
    8       -5.711940   1.000000
    9       -5.372358   1.000000
   10       -5.372358   1.000000
   11       -5.298510   1.000000
   12       -5.298510   1.000000
   13       -4.562508   1.000000
   14       -4.562507   1.000000
   15       -4.184360   1.000000
   16       -4.184360   1.000000
   17       -3.263347   1.000000
   18       -3.263347   1.000000
   19       -0.441693   0.000000
   20       -0.441692   0.000000
   21       -0.393793   0.000000
   22       -0.393792   0.000000
   23       -0.233695   0.000000
   24       -0.233694   0.000000
   25       -0.095286   0.000000
   26       -0.095285   0.000000
   27        2.481762   0.000000
   28        2.481762   0.000000
   29        2.622574   0.000000
   30        2.622574   0.000000
   31        3.156531   0.000000
   32        3.156531   0.000000
   33        3.842914   0.000000
   34        3.842914   0.000000
   35        3.981227   0.000000
   36        3.981227   0.000000
   37        4.684302   0.000000
   38        4.684302   0.000000
   39        5.659646   0.000000
   40        5.659646   0.000000
   41        6.566315   0.000000
   42        6.566315   0.000000
   43        6.612490   0.000000
   44        6.612490   0.000000
   45        7.630324   0.000000
   46        7.630324   0.000000
   47        8.169774   0.000000
   48        8.169774   0.000000
   49        8.355485   0.000000
   50        8.355485   0.000000
   51        9.042840   0.000000
   52        9.042841   0.000000
   53        9.228825   0.000000
   54        9.228825   0.000000
   55        9.928037   0.000000
   56        9.928037   0.000000
   57       10.040902   0.000000
   58       10.040902   0.000000
   59       11.293041   0.000000
   60       11.293041   0.000000
 
  0.0000000E+00  0.1250000E+00  0.0000000E+00  0.2040816E-01
    1      -16.843584   1.000000
    2      -16.843584   1.000000
    3      -15.835583   1.000000
    4      -15.835583   1.000000
    5       -8.342262   1.000000
    6       -8.342262   1.000000
    7       -5.963276   1.000000
    8       -5.963276   1.000000
    9       -5.602933   1.000000
   10       -5.602933   1.000000
   11       -5.236850   1.000000
   12       -5.236850   1.000000
   13       -4.738484   1.000000
   14       -4.738484   1.000000
   15       -4.126296   1.000000
   16       -4.126296   1.000000
   17       -3.332136   1.000000
   18       -3.332136   1.000000
   19       -0.663704   0.000000
   20       -0.663703   0.000000
   21       -0.498580   0.000000
   22       -0.498580   0.000000
   23       -0.350062   0.000000
   24       -0.350061   0.000000
   25        0.073622   0.000000
   26        0.073622   0.000000
   27        2.668463   0.000000
   28        2.668463   0.000000
   29        2.791956   0.000000
   30        2.791956   0.000000
   31        3.336973   0.000000
   32        3.336973   0.000000
   33        4.011096   0.000000
   34        4.011096   0.000000
   35        4.381936   0.000000
   36        4.381936   0.000000
   37        4.923266   0.000000
   38        4.923266   0.000000
   39        5.816001   0.000000
   40        5.816001   0.000000
   41        6.713253   0.000000
   42        6.713253   0.000000
   43        6.999855   0.000000
   44        6.999855   0.000000
   45        7.364522   0.000000
   46        7.364522   0.000000
   47        8.253991   0.000000
   48        8.253991   0.000000
   49        8.741093   0.000000
   50        8.741093   0.000000
   51        8.768437   0.000000
   52        8.768437   0.000000
   53        9.178765   0.000000
   54        9.178766   0.000000
   55        9.845934   0.000000
   56        9.845934   0.000000
   57       10.153649   0.000000
   58       10.153649   0.000000
   59       11.289765   0.000000
   60       11.289765   0.000000
 
  0.0000000E+00  0.1666667E+00  0.0000000E+00  0.2040816E-01
    1      -16.681700   1.000000
    2      -16.681700   1.000000
    3      -15.753044   1.000000
    4      -15.753044   1.000000
    5       -8.175953   1.000000
    6       -8.175953   1.000000
    7       -6.257671   1.000000
    8       -6.257671   1.000000
    9       -5.915947   1.000000
   10       -5.915947   1.000000
   11       -5.071900   1.000000
   12       -5.071900   1.000000
   13       -4.945403   1.000000
   14       -4.945403   1.000000
   15       -4.164433   1.000000
   16       -4.164433   1.000000
   17       -3.456606   1.000000
   18       -3.456606   1.000000
   19       -0.872083   0.000000
   20       -0.872082   0.000000
   21       -0.512746   0.000000
   22       -0.512745   0.000000
   23       -0.470828   0.000000
   24       -0.470827   0.000000
   25        0.271246   0.000000
   26        0.271247   0.000000
   27        2.902987   0.000000
   28        2.902987   0.000000
   29        3.024302   0.000000
   30        3.024302   0.000000
   31        3.577924   0.000000
   32        3.577924   0.000000
   33        4.243562   0.000000
   34        4.243562   0.000000
   35        4.742428   0.000000
   36        4.742428   0.000000
   37        5.305814   0.000000
   38        5.305814   0.000000
   39        6.022412   0.000000
   40        6.022412   0.000000
   41        6.755410   0.000000
   42        6.755410   0.000000
   43        7.155716   0.000000
   44        7.155716   0.000000
   45        7.234309   0.000000
   46        7.234309   0.000000
   47        8.325896   0.000000
   48        8.325896   0.000000
   49        8.750163   0.000000
   50        8.750163   0.000000
   51        9.195836   0.000000
   52        9.195837   0.000000
   53        9.248192   0.000000
   54        9.248193   0.000000
   55        9.806896   0.000000
   56        9.806896   0.000000
   57       10.332865   0.000000
   58       10.332865   0.000000
   59       11.029013   0.000000
   60       11.029025   0.000000
 
  0.0000000E+00  0.2083333E+00  0.0000000E+00  0.2040816E-01
    1      -16.484315   1.000000
    2      -16.484315   1.000000
    3      -15.652971   1.000000
    4      -15.652971   1.000000
    5       -8.017340   1.000000
    6       -8.017340   1.000000
    7       -6.547238   1.000000
    8       -6.547238   1.000000
    9       -6.240836   1.000000
   10       -6.240836   1.000000
   11       -5.171132   1.000000
   12       -5.171132   1.000000
   13       -4.869068   1.000000
   14       -4.869067   1.000000
   15       -4.286006   1.000000
   16       -4.286006   1.000000
   17       -3.636218   1.000000
   18       -3.636217   1.000000
   19       -0.993213   0.000000
   20       -0.993212   0.000000
   21       -0.627227   0.000000
   22       -0.627226   0.000000
   23       -0.383023   0.000000
   24       -0.383023   0.000000
   25        0.468728   0.000000
   26        0.468729   0.000000
   27        3.181668   0.000000
   28        3.181668   0.000000
   29        3.315038   0.000000
   30        3.315038   0.000000
   31        3.879469   0.000000
   32        3.879469   0.000000
   33        4.536506   0.000000
   34        4.536506   0.000000
   35        5.027055   0.000000
   36        5.027055   0.000000
   37        5.684483   0.000000
   38        5.684483   0.000000
   39        6.230774   0.000000
   40        6.230774   0.000000
   41        6.657533   0.000000
   42        6.657533   0.000000
   43        6.877945   0.000000
   44        6.877945   0.000000
   45        7.366602   0.000000
   46        7.366602   0.000000
   47        8.605745   0.000000
   48        8.605745   0.000000
   49        9.059932   0.000000
   50        9.059932   0.000000
   51        9.180577   0.000000
   52        9.180577   0.000000
   53        9.756966   0.000000
   54        9.756966   0.000000
   55        9.858229   0.000000
   56        9.858229   0.000000
   57       10.586260   0.000000
   58       10.586264   0.000000
   59       10.759851   0.000000
   60       10.759877   0.000000
 
  0.0000000E+00  0.2500000E+00  0.0000000E+00  0.2040816E-01
    1      -16.260192   1.000000
    2      -16.260192   1.000000
    3      -15.540300   1.000000
    4      -15.540300   1.000000
    5       -7.932362   1.000000
    6       -7.932362   1.000000
    7       -6.771868   1.000000
    8       -6.771868   1.000000
    9       -6.570972   1.000000
   10       -6.570971   1.000000
   11       -5.385130   1.000000
   12       -5.385129   1.000000
   13       -4.659632   1.000000
   14       -4.659632   1.000000
   15       -4.449187   1.000000
   16       -4.449187   1.000000
   17       -3.834827   1.000000
   18       -3.834827   1.000000
   19       -1.014362   0.000000
   20       -1.014360   0.000000
   21       -0.740202   0.000000
   22       -0.740200   0.000000
   23       -0.191954   0.000000
   24       -0.191953   0.000000
   25        0.647504   0.000000
   26        0.647505   0.000000
   27        3.497800   0.000000
   28        3.497800   0.000000
   29        3.656309   0.000000
   30        3.656309   0.000000
   31        4.241293   0.000000
   32        4.241293   0.000000
   33        4.880867   0.000000
   34        4.880867   0.000000
   35        5.235219   0.000000
   36        5.235219   0.000000
   37        5.821427   0.000000
   38        5.821427   0.000000
   39        6.161706   0.000000
   40        6.161706   0.000000
   41        6.582354   0.000000
   42        6.582354   0.000000
   43        6.816953   0.000000
   44        6.816954   0.000000
   45        7.691190   0.000000
   46        7.691190   0.000000
   47        8.728102   0.000000
   48        8.728102   0.000000
   49        9.287578   0.000000
   50        9.287578   0.000000
   51        9.454517   0.000000
   52        9.454517   0.000000
   53        9.892970   0.000000
   54        9.892970   0.000000
   55       10.111634   0.000000
   56       10.111634   0.000000
   57       10.859892   0.000000
   58       10.860244   0.000000
   59       10.913132   0.000000
   60       10.913747   0.000000
 
  0.0000000E+00  0.2916667E+00  0.0000000E+00  0.2040816E-01
    1      -16.020900   1.000000
    2      -16.020900   1.000000
    3      -15.421470   1.000000
    4      -15.421470   1.000000
    5       -7.990626   1.000000
    6       -7.990626   1.000000
    7       -6.908036   1.000000
    8       -6.908036   1.000000
    9       -6.870376   1.000000
   10       -6.870376   1.000000
   11       -5.581780   1.000000
   12       -5.581780   1.000000
   13       -4.629943   1.000000
   14       -4.629943   1.000000
   15       -4.439063   1.000000
   16       -4.439062   1.000000
   17       -3.989038   1.000000
   18       -3.989037   1.000000
   19       -0.956148   0.000000
   20       -0.956146   0.000000
   21       -0.815322   0.000000
   22       -0.815320   0.000000
   23        0.044106   0.000000
   24        0.044106   0.000000
   25        0.797233   0.000000
   26        0.797233   0.000000
   27        3.836694   0.000000
   28        3.836694   0.000000
   29        4.032355   0.000000
   30        4.032355   0.000000
   31        4.660594   0.000000
   32        4.660594   0.000000
   33        5.183544   0.000000
   34        5.183544   0.000000
   35        5.239029   0.000000
   36        5.239029   0.000000
   37        5.814104   0.000000
   38        5.814104   0.000000
   39        5.888371   0.000000
   40        5.888371   0.000000
   41        6.674301   0.000000
   42        6.674301   0.000000
   43        7.090101   0.000000
   44        7.090101   0.000000
   45        8.059142   0.000000
   46        8.059142   0.000000
   47        8.619080   0.000000
   48        8.619080   0.000000
   49        9.485228   0.000000
   50        9.485229   0.000000
   51        9.817783   0.000000
   52        9.817783   0.000000
   53        9.939511   0.000000
   54        9.939513   0.000000
   55       10.053790   0.000000
   56       10.053791   0.000000
   57       11.297686   0.000000
   58       11.298284   0.000000
   59       11.354922   0.000000
   60       11.356325   0.000000
 
  0.0000000E+00  0.3333333E+00  0.0000000E+00  0.2040816E-01
    1      -15.781267   1.000000
    2      -15.781267   1.000000
    3      -15.304360   1.000000
    4      -15.304360   1.000000
    5       -8.171333   1.000000
    6       -8.171333   1.000000
    7       -7.205605   1.000000
    8       -7.205605   1.000000
    9       -6.914332   1.000000
   10       -6.914332   1.000000
   11       -5.751872   1.000000
   12       -5.751872   1.000000
   13       -4.775246   1.000000
   14       -4.775246   1.000000
   15       -4.254956   1.000000
   16       -4.254955   1.000000
   17       -4.040773   1.000000
   18       -4.040772   1.000000
   19       -0.889545   0.000000
   20       -0.889542   0.000000
   21       -0.800437   0.000000
   22       -0.800434   0.000000
   23        0.284882   0.000000
   24        0.284882   0.000000
   25        0.914345   0.000000
   26        0.914345   0.000000
   27        4.160935   0.000000
   28        4.160935   0.000000
   29        4.404850   0.000000
   30        4.404850   0.000000
   31        4.758907   0.000000
   32        4.758907   0.000000
   33        5.150732   0.000000
   34        5.150732   0.000000
   35        5.396155   0.000000
   36        5.396155   0.000000
   37        5.931589   0.000000
   38        5.931589   0.000000
   39        5.978329   0.000000
   40        5.978329   0.000000
   41        6.928990   0.000000
   42        6.928990   0.000000
   43        7.363355   0.000000
   44        7.363355   0.000000
   45        8.305401   0.000000
   46        8.305401   0.000000
   47        8.491345   0.000000
   48        8.491345   0.000000
   49        9.520090   0.000000
   50        9.520090   0.000000
   51        9.594973   0.000000
   52        9.594973   0.000000
   53       10.169830   0.000000
   54       10.169830   0.000000
   55       10.398707   0.000000
   56       10.398707   0.000000
   57       11.562684   0.000000
   58       11.563042   0.000000
   59       11.615506   0.000000
   60       11.615952   0.000000
 
  0.0000000E+00  0.3750000E+00  0.0000000E+00  0.2040816E-01
    1      -15.559769   1.000000
    2      -15.559769   1.000000
    3      -15.198173   1.000000
    4      -15.198173   1.000000
    5       -8.390415   1.000000
    6       -8.390415   1.000000
    7       -7.472241   1.000000
    8       -7.472241   1.000000
    9       -6.951930   1.000000
   10       -6.951930   1.000000
   11       -5.889306   1.000000
   12       -5.889306   1.000000
   13       -4.890515   1.000000
   14       -4.890514   1.000000
   15       -4.105205   1.000000
   16       -4.105203   1.000000
   17       -3.979161   1.000000
   18       -3.979159   1.000000
   19       -0.875482   0.000000
   20       -0.875481   0.000000
   21       -0.662612   0.000000
   22       -0.662611   0.000000
   23        0.496635   0.000000
   24        0.496635   0.000000
   25        0.999860   0.000000
   26        0.999860   0.000000
   27        4.100005   0.000000
   28        4.100005   0.000000
   29        4.592233   0.000000
   30        4.592233   0.000000
   31        4.679519   0.000000
   32        4.679519   0.000000
   33        5.430004   0.000000
   34        5.430004   0.000000
   35        5.673480   0.000000
   36        5.673480   0.000000
   37        6.243516   0.000000
   38        6.243516   0.000000
   39        6.345421   0.000000
   40        6.345421   0.000000
   41        7.245054   0.000000
   42        7.245054   0.000000
   43        7.479779   0.000000
   44        7.479779   0.000000
   45        8.375981   0.000000
   46        8.375981   0.000000
   47        8.581627   0.000000
   48        8.581627   0.000000
   49        9.120477   0.000000
   50        9.120477   0.000000
   51        9.703027   0.000000
   52        9.703027   0.000000
   53       10.279559   0.000000
   54       10.279559   0.000000
   55       10.364840   0.000000
   56       10.364840   0.000000
   57       10.780432   0.000000
   58       10.780432   0.000000
   59       10.986944   0.000000
   60       10.986944   0.000000
 
  0.0000000E+00  0.4166667E+00  0.0000000E+00  0.2040816E-01
    1      -15.377752   1.000000
    2      -15.377752   1.000000
    3      -15.112731   1.000000
    4      -15.112731   1.000000
    5       -8.585671   1.000000
    6       -8.585671   1.000000
    7       -7.680375   1.000000
    8       -7.680375   1.000000
    9       -7.006227   1.000000
   10       -7.006227   1.000000
   11       -5.990045   1.000000
   12       -5.990045   1.000000
   13       -4.971033   1.000000
   14       -4.971033   1.000000
   15       -3.990294   1.000000
   16       -3.990292   1.000000
   17       -3.860150   1.000000
   18       -3.860149   1.000000
   19       -0.848606   0.000000
   20       -0.848606   0.000000
   21       -0.507226   0.000000
   22       -0.507226   0.000000
   23        0.655762   0.000000
   24        0.655762   0.000000
   25        1.057095   0.000000
   26        1.057095   0.000000
   27        3.612695   0.000000
   28        3.612695   0.000000
   29        4.781850   0.000000
   30        4.781850   0.000000
   31        4.846461   0.000000
   32        4.846461   0.000000
   33        5.627146   0.000000
   34        5.627146   0.000000
   35        6.211259   0.000000
   36        6.211259   0.000000
   37        6.613069   0.000000
   38        6.613069   0.000000
   39        6.766485   0.000000
   40        6.766485   0.000000
   41        7.471349   0.000000
   42        7.471349   0.000000
   43        7.553345   0.000000
   44        7.553345   0.000000
   45        8.504700   0.000000
   46        8.504700   0.000000
   47        8.772306   0.000000
   48        8.772307   0.000000
   49        8.830952   0.000000
   50        8.830952   0.000000
   51        9.367163   0.000000
   52        9.367163   0.000000
   53        9.805307   0.000000
   54        9.805307   0.000000
   55        9.845141   0.000000
   56        9.845141   0.000000
   57       10.483773   0.000000
   58       10.483774   0.000000
   59       10.606823   0.000000
   60       10.606823   0.000000
 
  0.0000000E+00  0.4583333E+00  0.0000000E+00  0.2040816E-01
    1      -15.256980   1.000000
    2      -15.256980   1.000000
    3      -15.057069   1.000000
    4      -15.057069   1.000000
    5       -8.718732   1.000000
    6       -8.718732   1.000000
    7       -7.812924   1.000000
    8       -7.812924   1.000000
    9       -7.054171   1.000000
   10       -7.054171   1.000000
   11       -6.051456   1.000000
   12       -6.051456   1.000000
   13       -5.017998   1.000000
   14       -5.017998   1.000000
   15       -3.918857   1.000000
   16       -3.918857   1.000000
   17       -3.750558   1.000000
   18       -3.750557   1.000000
   19       -0.819616   0.000000
   20       -0.819616   0.000000
   21       -0.380838   0.000000
   22       -0.380838   0.000000
   23        0.751546   0.000000
   24        0.751546   0.000000
   25        1.089713   0.000000
   26        1.089713   0.000000
   27        3.240435   0.000000
   28        3.240435   0.000000
   29        4.830099   0.000000
   30        4.830099   0.000000
   31        5.043851   0.000000
   32        5.043851   0.000000
   33        5.807230   0.000000
   34        5.807230   0.000000
   35        6.584349   0.000000
   36        6.584349   0.000000
   37        7.061981   0.000000
   38        7.061981   0.000000
   39        7.101728   0.000000
   40        7.101728   0.000000
   41        7.683083   0.000000
   42        7.683083   0.000000
   43        7.834960   0.000000
   44        7.834960   0.000000
   45        8.506664   0.000000
   46        8.506665   0.000000
   47        8.541841   0.000000
   48        8.541842   0.000000
   49        8.791348   0.000000
   50        8.791348   0.000000
   51        8.899503   0.000000
   52        8.899504   0.000000
   53        9.237698   0.000000
   54        9.237699   0.000000
   55        9.436668   0.000000
   56        9.436668   0.000000
   57       10.247605   0.000000
   58       10.247605   0.000000
   59       10.390795   0.000000
   60       10.390795   0.000000
 
  0.0000000E+00  0.5000000E+00  0.0000000E+00  0.2040816E-01
    1      -15.214511   1.000000
    2      -15.214511   1.000000
    3      -15.037712   1.000000
    4      -15.037712   1.000000
    5       -8.765903   1.000000
    6       -8.765903   1.000000
    7       -7.858457   1.000000
    8       -7.858457   1.000000
    9       -7.072922   1.000000
   10       -7.072922   1.000000
   11       -6.072092   1.000000
   12       -6.072092   1.000000
   13       -5.033371   1.000000
   14       -5.033371   1.000000
   15       -3.895413   1.000000
   16       -3.895413   1.000000
   17       -3.706115   1.000000
   18       -3.706115   1.000000
   19       -0.807303   0.000000
   20       -0.807303   0.000000
   21       -0.330412   0.000000
   22       -0.330412   0.000000
   23        0.783103   0.000000
   24        0.783103   0.000000
   25        1.100289   0.000000
   26        1.100289   0.000000
   27        3.101487   0.000000
   28        3.101487   0.000000
   29        4.848942   0.000000
   30        4.848942   0.000000
   31        5.122456   0.000000
   32        5.122456   0.000000
   33        5.861591   0.000000
   34        5.861591   0.000000
   35        6.664329   0.000000
   36        6.664329   0.000000
   37        7.194443   0.000000
   38        7.194443   0.000000
   39        7.607167   0.000000
   40        7.607167   0.000000
   41        7.840490   0.000000
   42        7.840491   0.000000
   43        8.100743   0.000000
   44        8.100743   0.000000
   45        8.125627   0.000000
   46        8.125628   0.000000
   47        8.452762   0.000000
   48        8.452762   0.000000
   49        8.504207   0.000000
   50        8.504208   0.000000
   51        8.554941   0.000000
   52        8.554941   0.000000
   53        9.280015   0.000000
   54        9.280015   0.000000
   55        9.537633   0.000000
   56        9.537633   0.000000
   57        9.884856   0.000000
   58        9.884856   0.000000
   59       10.246783   0.000000
   60       10.246783   0.000000
 
  0.2777778E-01  0.5138889E+00  0.0000000E+00  0.2040816E-01
    1      -15.212761   1.000000
    2      -15.208841   1.000000
    3      -15.035292   1.000000
    4      -15.034841   1.000000
    5       -8.756218   1.000000
    6       -8.753146   1.000000
    7       -7.865084   1.000000
    8       -7.863635   1.000000
    9       -7.069394   1.000000
   10       -7.067962   1.000000
   11       -6.080367   1.000000
   12       -6.078398   1.000000
   13       -5.031840   1.000000
   14       -5.028522   1.000000
   15       -4.033798   1.000000
   16       -3.971525   1.000000
   17       -3.675945   1.000000
   18       -3.601152   1.000000
   19       -0.812327   0.000000
   20       -0.795914   0.000000
   21       -0.344335   0.000000
   22       -0.306867   0.000000
   23        0.791164   0.000000
   24        0.806940   0.000000
   25        1.057751   0.000000
   26        1.070135   0.000000
   27        3.111370   0.000000
   28        3.116510   0.000000
   29        4.909654   0.000000
   30        4.911752   0.000000
   31        5.158805   0.000000
   32        5.165079   0.000000
   33        5.868192   0.000000
   34        5.868885   0.000000
   35        6.677751   0.000000
   36        6.684178   0.000000
   37        7.203397   0.000000
   38        7.203660   0.000000
   39        7.610595   0.000000
   40        7.615707   0.000000
   41        7.843124   0.000000
   42        7.847672   0.000000
   43        8.105158   0.000000
   44        8.111892   0.000000
   45        8.121059   0.000000
   46        8.127165   0.000000
   47        8.311617   0.000000
   48        8.337166   0.000000
   49        8.564987   0.000000
   50        8.565095   0.000000
   51        8.575778   0.000000
   52        8.607125   0.000000
   53        9.290324   0.000000
   54        9.290481   0.000000
   55        9.551457   0.000000
   56        9.554893   0.000000
   57        9.908165   0.000000
   58        9.917254   0.000000
   59       10.254115   0.000000
   60       10.254221   0.000000
 
  0.5555556E-01  0.5277778E+00  0.0000000E+00  0.2040816E-01
    1      -15.203701   1.000000
    2      -15.195913   1.000000
    3      -15.027705   1.000000
    4      -15.026809   1.000000
    5       -8.724255   1.000000
    6       -8.718119   1.000000
    7       -7.883654   1.000000
    8       -7.880790   1.000000
    9       -7.057617   1.000000
   10       -7.054832   1.000000
   11       -6.100871   1.000000
   12       -6.096566   1.000000
   13       -5.025394   1.000000
   14       -5.019510   1.000000
   15       -4.241940   1.000000
   16       -4.178601   1.000000
   17       -3.589708   1.000000
   18       -3.501720   1.000000
   19       -0.813912   0.000000
   20       -0.781409   0.000000
   21       -0.346348   0.000000
   22       -0.272759   0.000000
   23        0.821941   0.000000
   24        0.861649   0.000000
   25        0.951125   0.000000
   26        0.983469   0.000000
   27        3.145109   0.000000
   28        3.155120   0.000000
   29        5.085641   0.000000
   30        5.088496   0.000000
   31        5.272283   0.000000
   32        5.283074   0.000000
   33        5.888664   0.000000
   34        5.890077   0.000000
   35        6.722214   0.000000
   36        6.736468   0.000000
   37        7.230409   0.000000
   38        7.230911   0.000000
   39        7.608371   0.000000
   40        7.627205   0.000000
   41        7.834334   0.000000
   42        7.849063   0.000000
   43        8.038102   0.000000
   44        8.061166   0.000000
   45        8.145689   0.000000
   46        8.147229   0.000000
   47        8.233451   0.000000
   48        8.237594   0.000000
   49        8.595745   0.000000
   50        8.595847   0.000000
   51        8.658945   0.000000
   52        8.684697   0.000000
   53        9.321482   0.000000
   54        9.321745   0.000000
   55        9.589675   0.000000
   56        9.593910   0.000000
   57        9.978062   0.000000
   58        9.993812   0.000000
   59       10.275589   0.000000
   60       10.275751   0.000000
 
  0.8333333E-01  0.5416667E+00  0.0000000E+00  0.2040816E-01
    1      -15.187810   1.000000
    2      -15.176256   1.000000
    3      -15.015340   1.000000
    4      -15.014013   1.000000
    5       -8.670532   1.000000
    6       -8.661341   1.000000
    7       -7.914451   1.000000
    8       -7.910259   1.000000
    9       -7.038421   1.000000
   10       -7.034456   1.000000
   11       -6.127260   1.000000
   12       -6.120085   1.000000
   13       -5.018450   1.000000
   14       -5.011364   1.000000
   15       -4.490460   1.000000
   16       -4.431456   1.000000
   17       -3.520797   1.000000
   18       -3.425518   1.000000
   19       -0.819079   0.000000
   20       -0.773350   0.000000
   21       -0.330575   0.000000
   22       -0.225488   0.000000
   23        0.785042   0.000000
   24        0.794906   0.000000
   25        0.947351   0.000000
   26        0.949535   0.000000
   27        3.199760   0.000000
   28        3.214282   0.000000
   29        5.354399   0.000000
   30        5.355306   0.000000
   31        5.457695   0.000000
   32        5.467016   0.000000
   33        5.922898   0.000000
   34        5.925104   0.000000
   35        6.785001   0.000000
   36        6.812064   0.000000
   37        7.275090   0.000000
   38        7.275794   0.000000
   39        7.504516   0.000000
   40        7.552579   0.000000
   41        7.804356   0.000000
   42        7.805751   0.000000
   43        8.013982   0.000000
   44        8.014677   0.000000
   45        8.200632   0.000000
   46        8.201677   0.000000
   47        8.263961   0.000000
   48        8.269435   0.000000
   49        8.646565   0.000000
   50        8.646699   0.000000
   51        8.735914   0.000000
   52        8.757115   0.000000
   53        9.373315   0.000000
   54        9.373616   0.000000
   55        9.641860   0.000000
   56        9.645517   0.000000
   57       10.074535   0.000000
   58       10.093611   0.000000
   59       10.308833   0.000000
   60       10.308911   0.000000
 
  0.1111111E+00  0.5555556E+00  0.0000000E+00  0.2040816E-01
    1      -15.165854   1.000000
    2      -15.150690   1.000000
    3      -14.998808   1.000000
    4      -14.997069   1.000000
    5       -8.595864   1.000000
    6       -8.583636   1.000000
    7       -7.957349   1.000000
    8       -7.951996   1.000000
    9       -7.013125   1.000000
   10       -7.008267   1.000000
   11       -6.151605   1.000000
   12       -6.141076   1.000000
   13       -5.016856   1.000000
   14       -5.010972   1.000000
   15       -4.767704   1.000000
   16       -4.714696   1.000000
   17       -3.467713   1.000000
   18       -3.366413   1.000000
   19       -0.835581   0.000000
   20       -0.783357   0.000000
   21       -0.290572   0.000000
   22       -0.162795   0.000000
   23        0.620337   0.000000
   24        0.631906   0.000000
   25        1.027704   0.000000
   26        1.056449   0.000000
   27        3.272140   0.000000
   28        3.290951   0.000000
   29        5.648082   0.000000
   30        5.669250   0.000000
   31        5.723032   0.000000
   32        5.735827   0.000000
   33        5.970868   0.000000
   34        5.974132   0.000000
   35        6.798498   0.000000
   36        6.852153   0.000000
   37        7.331007   0.000000
   38        7.337199   0.000000
   39        7.341717   0.000000
   40        7.363280   0.000000
   41        7.846834   0.000000
   42        7.852542   0.000000
   43        8.072709   0.000000
   44        8.075472   0.000000
   45        8.277728   0.000000
   46        8.278587   0.000000
   47        8.334178   0.000000
   48        8.338612   0.000000
   49        8.717096   0.000000
   50        8.717200   0.000000
   51        8.819109   0.000000
   52        8.837337   0.000000
   53        9.445134   0.000000
   54        9.445399   0.000000
   55        9.704022   0.000000
   56        9.707038   0.000000
   57       10.182977   0.000000
   58       10.203076   0.000000
   59       10.347380   0.000000
   60       10.347772   0.000000
 
  0.1388889E+00  0.5694444E+00  0.0000000E+00  0.2040816E-01
    1      -15.138945   1.000000
    2      -15.120381   1.000000
    3      -14.978988   1.000000
    4      -14.976865   1.000000
    5       -8.501443   1.000000
    6       -8.486190   1.000000
    7       -8.011227   1.000000
    8       -8.004970   1.000000
    9       -6.983624   1.000000
   10       -6.978316   1.000000
   11       -6.166901   1.000000
   12       -6.152706   1.000000
   13       -5.087581   1.000000
   14       -5.047690   1.000000
   15       -4.999275   1.000000
   16       -4.995611   1.000000
   17       -3.422862   1.000000
   18       -3.315968   1.000000
   19       -0.868651   0.000000
   20       -0.817717   0.000000
   21       -0.225590   0.000000
   22       -0.084870   0.000000
   23        0.442232   0.000000
   24        0.461986   0.000000
   25        1.137379   0.000000
   26        1.179464   0.000000
   27        3.359615   0.000000
   28        3.382799   0.000000
   29        5.905868   0.000000
   30        5.910789   0.000000
   31        6.031978   0.000000
   32        6.038642   0.000000
   33        6.105457   0.000000
   34        6.119212   0.000000
   35        6.629981   0.000000
   36        6.687208   0.000000
   37        7.369867   0.000000
   38        7.376727   0.000000
   39        7.416048   0.000000
   40        7.416164   0.000000
   41        7.942739   0.000000
   42        7.949056   0.000000
   43        8.169774   0.000000
   44        8.172231   0.000000
   45        8.376893   0.000000
   46        8.377605   0.000000
   47        8.428021   0.000000
   48        8.431990   0.000000
   49        8.806472   0.000000
   50        8.806497   0.000000
   51        8.913075   0.000000
   52        8.929625   0.000000
   53        9.534894   0.000000
   54        9.535021   0.000000
   55        9.773868   0.000000
   56        9.776572   0.000000
   57       10.297892   0.000000
   58       10.318053   0.000000
   59       10.373274   0.000000
   60       10.375273   0.000000
 
  0.1666667E+00  0.5833333E+00  0.0000000E+00  0.2040816E-01
    1      -15.108493   1.000000
    2      -15.086798   1.000000
    3      -14.956974   1.000000
    4      -14.954502   1.000000
    5       -8.388841   1.000000
    6       -8.370558   1.000000
    7       -8.073496   1.000000
    8       -8.066663   1.000000
    9       -6.952330   1.000000
   10       -6.947256   1.000000
   11       -6.168497   1.000000
   12       -6.150538   1.000000
   13       -5.386267   1.000000
   14       -5.340001   1.000000
   15       -5.038058   1.000000
   16       -5.032687   1.000000
   17       -3.379117   1.000000
   18       -3.266615   1.000000
   19       -0.919566   0.000000
   20       -0.875198   0.000000
   21       -0.142142   0.000000
   22        0.004583   0.000000
   23        0.276065   0.000000
   24        0.301117   0.000000
   25        1.257208   0.000000
   26        1.309499   0.000000
   27        3.460451   0.000000
   28        3.488486   0.000000
   29        5.999436   0.000000
   30        6.070280   0.000000
   31        6.103930   0.000000
   32        6.117349   0.000000
   33        6.449036   0.000000
   34        6.459145   0.000000
   35        6.551770   0.000000
   36        6.559427   0.000000
   37        7.507582   0.000000
   38        7.508599   0.000000
   39        7.577341   0.000000
   40        7.584056   0.000000
   41        8.074415   0.000000
   42        8.081684   0.000000
   43        8.293320   0.000000
   44        8.295429   0.000000
   45        8.497789   0.000000
   46        8.498282   0.000000
   47        8.541933   0.000000
   48        8.546059   0.000000
   49        8.912830   0.000000
   50        8.913175   0.000000
   51        9.017940   0.000000
   52        9.033868   0.000000
   53        9.635807   0.000000
   54        9.635927   0.000000
   55        9.847938   0.000000
   56        9.850691   0.000000
   57       10.332436   0.000000
   58       10.340550   0.000000
   59       10.421846   0.000000
   60       10.440428   0.000000
 
  0.1944444E+00  0.5972222E+00  0.0000000E+00  0.2040816E-01
    1      -15.076254   1.000000
    2      -15.051755   1.000000
    3      -14.934074   1.000000
    4      -14.931299   1.000000
    5       -8.260369   1.000000
    6       -8.238902   1.000000
    7       -8.139843   1.000000
    8       -8.132912   1.000000
    9       -6.922456   1.000000
   10       -6.918715   1.000000
   11       -6.154654   1.000000
   12       -6.133272   1.000000
   13       -5.693998   1.000000
   14       -5.654414   1.000000
   15       -5.071960   1.000000
   16       -5.070527   1.000000
   17       -3.331534   1.000000
   18       -3.213058   1.000000
   19       -0.985945   0.000000
   20       -0.950556   0.000000
   21       -0.052114   0.000000
   22        0.085473   0.000000
   23        0.146460   0.000000
   24        0.164008   0.000000
   25        1.376656   0.000000
   26        1.437410   0.000000
   27        3.573438   0.000000
   28        3.607231   0.000000
   29        5.766397   0.000000
   30        5.860316   0.000000
   31        6.188891   0.000000
   32        6.197104   0.000000
   33        6.563646   0.000000
   34        6.610557   0.000000
   35        6.989632   0.000000
   36        7.000581   0.000000
   37        7.616516   0.000000
   38        7.616645   0.000000
   39        7.845591   0.000000
   40        7.855439   0.000000
   41        8.249156   0.000000
   42        8.258348   0.000000
   43        8.440766   0.000000
   44        8.442731   0.000000
   45        8.639031   0.000000
   46        8.639066   0.000000
   47        8.672257   0.000000
   48        8.677393   0.000000
   49        9.032375   0.000000
   50        9.033446   0.000000
   51        9.131772   0.000000
   52        9.147909   0.000000
   53        9.719768   0.000000
   54        9.719975   0.000000
   55        9.922449   0.000000
   56        9.925380   0.000000
   57       10.195392   0.000000
   58       10.208092   0.000000
   59       10.553944   0.000000
   60       10.571712   0.000000
 
  0.2222222E+00  0.6111111E+00  0.0000000E+00  0.2040816E-01
    1      -15.044253   1.000000
    2      -15.017343   1.000000
    3      -14.911784   1.000000
    4      -14.908757   1.000000
    5       -8.207871   1.000000
    6       -8.199805   1.000000
    7       -8.116062   1.000000
    8       -8.092702   1.000000
    9       -6.898937   1.000000
   10       -6.898490   1.000000
   11       -6.126470   1.000000
   12       -6.106931   1.000000
   13       -5.982917   1.000000
   14       -5.957102   1.000000
   15       -5.121133   1.000000
   16       -5.117701   1.000000
   17       -3.278258   1.000000
   18       -3.153225   1.000000
   19       -1.062532   0.000000
   20       -1.036906   0.000000
   21       -0.004733   0.000000
   22        0.001298   0.000000
   23        0.097743   0.000000
   24        0.209377   0.000000
   25        1.486548   0.000000
   26        1.554333   0.000000
   27        3.697132   0.000000
   28        3.738103   0.000000
   29        5.436380   0.000000
   30        5.519478   0.000000
   31        6.283108   0.000000
   32        6.290423   0.000000
   33        6.791595   0.000000
   34        6.834416   0.000000
   35        7.430910   0.000000
   36        7.442700   0.000000
   37        7.746151   0.000000
   38        7.747620   0.000000
   39        8.108331   0.000000
   40        8.119477   0.000000
   41        8.484277   0.000000
   42        8.494557   0.000000
   43        8.610832   0.000000
   44        8.613461   0.000000
   45        8.793652   0.000000
   46        8.794837   0.000000
   47        8.811930   0.000000
   48        8.819352   0.000000
   49        9.153382   0.000000
   50        9.156222   0.000000
   51        9.255474   0.000000
   52        9.272082   0.000000
   53        9.689453   0.000000
   54        9.693519   0.000000
   55        9.997236   0.000000
   56        9.999572   0.000000
   57       10.141715   0.000000
   58       10.150578   0.000000
   59       10.700911   0.000000
   60       10.717554   0.000000
 
  0.2500000E+00  0.6250000E+00  0.0000000E+00  0.2040816E-01
    1      -15.014798   1.000000
    2      -14.985928   1.000000
    3      -14.891680   1.000000
    4      -14.888463   1.000000
    5       -8.267264   1.000000
    6       -8.259741   1.000000
    7       -7.964792   1.000000
    8       -7.937995   1.000000
    9       -6.898195   1.000000
   10       -6.891522   1.000000
   11       -6.258898   1.000000
   12       -6.229555   1.000000
   13       -6.087722   1.000000
   14       -6.048719   1.000000
   15       -5.181065   1.000000
   16       -5.171900   1.000000
   17       -3.221293   1.000000
   18       -3.089169   1.000000
   19       -1.141497   0.000000
   20       -1.125606   0.000000
   21       -0.088051   0.000000
   22       -0.066206   0.000000
   23        0.163047   0.000000
   24        0.300299   0.000000
   25        1.579035   0.000000
   26        1.652441   0.000000
   27        3.829496   0.000000
   28        3.879897   0.000000
   29        5.112473   0.000000
   30        5.183727   0.000000
   31        6.380808   0.000000
   32        6.388100   0.000000
   33        7.018129   0.000000
   34        7.057194   0.000000
   35        7.758572   0.000000
   36        7.764551   0.000000
   37        7.983400   0.000000
   38        7.987187   0.000000
   39        8.326481   0.000000
   40        8.335882   0.000000
   41        8.749141   0.000000
   42        8.755788   0.000000
   43        8.799574   0.000000
   44        8.808943   0.000000
   45        8.933620   0.000000
   46        8.935654   0.000000
   47        8.955164   0.000000
   48        8.961690   0.000000
   49        9.241089   0.000000
   50        9.247461   0.000000
   51        9.405853   0.000000
   52        9.422237   0.000000
   53        9.603884   0.000000
   54        9.606640   0.000000
   55       10.079250   0.000000
   56       10.079309   0.000000
   57       10.255138   0.000000
   58       10.260270   0.000000
   59       10.821421   0.000000
   60       10.864651   0.000000
 
  0.2777778E+00  0.6388889E+00  0.0000000E+00  0.2040816E-01
    1      -14.990436   1.000000
    2      -14.960116   1.000000
    3      -14.875429   1.000000
    4      -14.872083   1.000000
    5       -8.315717   1.000000
    6       -8.308414   1.000000
    7       -7.811214   1.000000
    8       -7.781269   1.000000
    9       -6.941047   1.000000
   10       -6.921598   1.000000
   11       -6.449324   1.000000
   12       -6.438823   1.000000
   13       -6.045348   1.000000
   14       -6.003283   1.000000
   15       -5.242659   1.000000
   16       -5.227184   1.000000
   17       -3.167014   1.000000
   18       -3.027854   1.000000
   19       -1.212561   0.000000
   20       -1.205553   0.000000
   21       -0.149351   0.000000
   22       -0.121910   0.000000
   23        0.236597   0.000000
   24        0.377725   0.000000
   25        1.648038   0.000000
   26        1.725590   0.000000
   27        3.966052   0.000000
   28        4.030058   0.000000
   29        4.823446   0.000000
   30        4.879892   0.000000
   31        6.472790   0.000000
   32        6.480153   0.000000
   33        7.222583   0.000000
   34        7.260036   0.000000
   35        7.905070   0.000000
   36        7.905991   0.000000
   37        8.349110   0.000000
   38        8.358540   0.000000
   39        8.500546   0.000000
   40        8.505139   0.000000
   41        8.900232   0.000000
   42        8.910367   0.000000
   43        8.951599   0.000000
   44        8.953549   0.000000
   45        9.010191   0.000000
   46        9.019527   0.000000
   47        9.142718   0.000000
   48        9.146815   0.000000
   49        9.340097   0.000000
   50        9.344057   0.000000
   51        9.612496   0.000000
   52        9.628142   0.000000
   53        9.669509   0.000000
   54        9.669746   0.000000
   55       10.168105   0.000000
   56       10.171412   0.000000
   57       10.391157   0.000000
   58       10.424362   0.000000
   59       10.429592   0.000000
   60       10.500821   0.000000
 
  0.3055556E+00  0.6527778E+00  0.0000000E+00  0.2040816E-01
    1      -14.973834   1.000000
    2      -14.942623   1.000000
    3      -14.864638   1.000000
    4      -14.861221   1.000000
    5       -8.347792   1.000000
    6       -8.340650   1.000000
    7       -7.675527   1.000000
    8       -7.642337   1.000000
    9       -7.034151   1.000000
   10       -7.004247   1.000000
   11       -6.546740   1.000000
   12       -6.542893   1.000000
   13       -6.010034   1.000000
   14       -5.963193   1.000000
   15       -5.292847   1.000000
   16       -5.271600   1.000000
   17       -3.125793   1.000000
   18       -2.981030   1.000000
   19       -1.263467   0.000000
   20       -1.263083   0.000000
   21       -0.183479   0.000000
   22       -0.153602   0.000000
   23        0.288679   0.000000
   24        0.431251   0.000000
   25        1.689882   0.000000
   26        1.770005   0.000000
   27        4.092927   0.000000
   28        4.180397   0.000000
   29        4.597029   0.000000
   30        4.629478   0.000000
   31        6.543637   0.000000
   32        6.551040   0.000000
   33        7.380238   0.000000
   34        7.418223   0.000000
   35        7.992840   0.000000
   36        7.997974   0.000000
   37        8.602423   0.000000
   38        8.609090   0.000000
   39        8.621204   0.000000
   40        8.628068   0.000000
   41        8.901865   0.000000
   42        8.909396   0.000000
   43        8.949263   0.000000
   44        8.951740   0.000000
   45        9.241426   0.000000
   46        9.246532   0.000000
   47        9.365112   0.000000
   48        9.369670   0.000000
   49        9.516418   0.000000
   50        9.516809   0.000000
   51        9.814130   0.000000
   52        9.814950   0.000000
   53        9.843447   0.000000
   54        9.858860   0.000000
   55       10.030236   0.000000
   56       10.033207   0.000000
   57       10.104387   0.000000
   58       10.122472   0.000000
   59       10.255443   0.000000
   60       10.258416   0.000000
 
  0.3333333E+00  0.6666667E+00  0.0000000E+00  0.2040816E-01
    1      -14.967713   1.000000
    2      -14.936200   1.000000
    3      -14.860756   1.000000
    4      -14.857317   1.000000
    5       -8.359261   1.000000
    6       -8.352182   1.000000
    7       -7.612490   1.000000
    8       -7.577238   1.000000
    9       -7.093490   1.000000
   10       -7.062122   1.000000
   11       -6.571709   1.000000
   12       -6.564201   1.000000
   13       -5.995460   1.000000
   14       -5.946307   1.000000
   15       -5.313506   1.000000
   16       -5.289657   1.000000
   17       -3.109698   1.000000
   18       -2.962699   1.000000
   19       -1.284550   0.000000
   20       -1.282404   0.000000
   21       -0.193823   0.000000
   22       -0.163162   0.000000
   23        0.307987   0.000000
   24        0.451056   0.000000
   25        1.703603   0.000000
   26        1.784608   0.000000
   27        4.155805   0.000000
   28        4.272675   0.000000
   29        4.498881   0.000000
   30        4.501790   0.000000
   31        6.572167   0.000000
   32        6.579594   0.000000
   33        7.445297   0.000000
   34        7.484351   0.000000
   35        8.026600   0.000000
   36        8.033986   0.000000
   37        8.620259   0.000000
   38        8.633650   0.000000
   39        8.668092   0.000000
   40        8.670301   0.000000
   41        8.941610   0.000000
   42        8.961378   0.000000
   43        8.968360   0.000000
   44        8.982994   0.000000
   45        9.444399   0.000000
   46        9.450238   0.000000
   47        9.552568   0.000000
   48        9.558080   0.000000
   49        9.601024   0.000000
   50        9.606373   0.000000
   51        9.608512   0.000000
   52        9.610707   0.000000
   53        9.902357   0.000000
   54        9.904281   0.000000
   55       10.024827   0.000000
   56       10.048980   0.000000
   57       10.118591   0.000000
   58       10.141194   0.000000
   59       10.164263   0.000000
   60       10.250117   0.000000
 
  0.3055556E+00  0.6111111E+00  0.0000000E+00  0.2040816E-01
    1      -14.996841   1.000000
    2      -14.966532   1.000000
    3      -14.878179   1.000000
    4      -14.874817   1.000000
    5       -8.308200   1.000000
    6       -8.300797   1.000000
    7       -7.790608   1.000000
    8       -7.763105   1.000000
    9       -6.892473   1.000000
   10       -6.861450   1.000000
   11       -6.513981   1.000000
   12       -6.512982   1.000000
   13       -6.056879   1.000000
   14       -6.015778   1.000000
   15       -5.224656   1.000000
   16       -5.210114   1.000000
   17       -3.181029   1.000000
   18       -3.042544   1.000000
   19       -1.206855   0.000000
   20       -1.200163   0.000000
   21       -0.163838   0.000000
   22       -0.137182   0.000000
   23        0.222539   0.000000
   24        0.362044   0.000000
   25        1.655792   0.000000
   26        1.732908   0.000000
   27        4.073959   0.000000
   28        4.142858   0.000000
   29        4.732754   0.000000
   30        4.783689   0.000000
   31        6.437174   0.000000
   32        6.444010   0.000000
   33        7.170022   0.000000
   34        7.199102   0.000000
   35        7.854646   0.000000
   36        7.854731   0.000000
   37        8.389102   0.000000
   38        8.396663   0.000000
   39        8.609221   0.000000
   40        8.618437   0.000000
   41        8.772362   0.000000
   42        8.780596   0.000000
   43        8.802385   0.000000
   44        8.810509   0.000000
   45        8.929323   0.000000
   46        8.934799   0.000000
   47        9.153705   0.000000
   48        9.154096   0.000000
   49        9.567625   0.000000
   50        9.570953   0.000000
   51       10.036854   0.000000
   52       10.040389   0.000000
   53       10.087277   0.000000
   54       10.092103   0.000000
   55       10.093428   0.000000
   56       10.096486   0.000000
   57       10.136522   0.000000
   58       10.148874   0.000000
   59       10.503928   0.000000
   60       10.542462   0.000000
 
  0.2777778E+00  0.5555556E+00  0.0000000E+00  0.2040816E-01
    1      -15.092882   1.000000
    2      -15.066004   1.000000
    3      -14.932821   1.000000
    4      -14.929716   1.000000
    5       -8.147637   1.000000
    6       -8.139209   1.000000
    7       -7.997489   1.000000
    8       -7.981322   1.000000
    9       -6.672442   1.000000
   10       -6.658041   1.000000
   11       -6.315605   1.000000
   12       -6.282937   1.000000
   13       -6.186246   1.000000
   14       -6.152436   1.000000
   15       -5.016411   1.000000
   16       -5.015492   1.000000
   17       -3.361854   1.000000
   18       -3.238986   1.000000
   19       -1.042569   0.000000
   20       -1.024526   0.000000
   21       -0.110167   0.000000
   22       -0.109716   0.000000
   23        0.001723   0.000000
   24        0.112487   0.000000
   25        1.542822   0.000000
   26        1.606769   0.000000
   27        4.151823   0.000000
   28        4.193093   0.000000
   29        5.089377   0.000000
   30        5.162264   0.000000
   31        6.077227   0.000000
   32        6.081596   0.000000
   33        6.624950   0.000000
   34        6.632540   0.000000
   35        7.379102   0.000000
   36        7.380180   0.000000
   37        7.533628   0.000000
   38        7.537552   0.000000
   39        8.031170   0.000000
   40        8.035166   0.000000
   41        8.353890   0.000000
   42        8.377554   0.000000
   43        8.642193   0.000000
   44        8.651473   0.000000
   45        8.737652   0.000000
   46        8.760310   0.000000
   47        9.181819   0.000000
   48        9.194695   0.000000
   49        9.383830   0.000000
   50        9.384077   0.000000
   51        9.765130   0.000000
   52        9.767068   0.000000
   53       10.054191   0.000000
   54       10.068971   0.000000
   55       10.368546   0.000000
   56       10.370994   0.000000
   57       10.614991   0.000000
   58       10.616351   0.000000
   59       10.701854   0.000000
   60       10.704241   0.000000
 
  0.2500000E+00  0.5000000E+00  0.0000000E+00  0.2040816E-01
    1      -15.259343   1.000000
    2      -15.237450   1.000000
    3      -15.023196   1.000000
    4      -15.020554   1.000000
    5       -8.086661   1.000000
    6       -8.082321   1.000000
    7       -7.877462   1.000000
    8       -7.866372   1.000000
    9       -6.623027   1.000000
   10       -6.613280   1.000000
   11       -6.308687   1.000000
   12       -6.288365   1.000000
   13       -5.934881   1.000000
   14       -5.893587   1.000000
   15       -4.778211   1.000000
   16       -4.768575   1.000000
   17       -3.567374   1.000000
   18       -3.456713   1.000000
   19       -0.933194   0.000000
   20       -0.932326   0.000000
   21       -0.301664   0.000000
   22       -0.197233   0.000000
   23       -0.086270   0.000000
   24       -0.074242   0.000000
   25        1.416137   0.000000
   26        1.456020   0.000000
   27        4.416049   0.000000
   28        4.432010   0.000000
   29        5.304395   0.000000
   30        5.358579   0.000000
   31        5.599252   0.000000
   32        5.600822   0.000000
   33        6.248251   0.000000
   34        6.283092   0.000000
   35        6.730413   0.000000
   36        6.735125   0.000000
   37        6.860315   0.000000
   38        6.861788   0.000000
   39        7.365137   0.000000
   40        7.368457   0.000000
   41        7.754744   0.000000
   42        7.764739   0.000000
   43        8.270645   0.000000
   44        8.273322   0.000000
   45        8.461894   0.000000
   46        8.495105   0.000000
   47        9.164550   0.000000
   48        9.193021   0.000000
   49        9.284249   0.000000
   50        9.289431   0.000000
   51        9.659903   0.000000
   52        9.664242   0.000000
   53        9.816361   0.000000
   54        9.823818   0.000000
   55       10.150172   0.000000
   56       10.153755   0.000000
   57       11.169349   0.000000
   58       11.183707   0.000000
   59       11.193504   0.000000
   60       11.218777   0.000000
 
  0.2222222E+00  0.4444444E+00  0.0000000E+00  0.2040816E-01
    1      -15.486181   1.000000
    2      -15.469772   1.000000
    3      -15.142221   1.000000
    4      -15.140163   1.000000
    5       -8.061432   1.000000
    6       -8.055721   1.000000
    7       -7.511249   1.000000
    8       -7.496480   1.000000
    9       -6.661177   1.000000
   10       -6.650019   1.000000
   11       -6.371174   1.000000
   12       -6.350363   1.000000
   13       -5.542903   1.000000
   14       -5.489397   1.000000
   15       -4.541577   1.000000
   16       -4.523150   1.000000
   17       -3.733691   1.000000
   18       -3.631507   1.000000
   19       -1.049795   0.000000
   20       -0.995768   0.000000
   21       -0.450014   0.000000
   22       -0.418881   0.000000
   23       -0.151314   0.000000
   24       -0.135375   0.000000
   25        1.303420   0.000000
   26        1.312501   0.000000
   27        4.671000   0.000000
   28        4.695338   0.000000
   29        5.067814   0.000000
   30        5.070950   0.000000
   31        5.105950   0.000000
   32        5.150291   0.000000
   33        5.883708   0.000000
   34        5.884627   0.000000
   35        6.342230   0.000000
   36        6.343546   0.000000
   37        6.561911   0.000000
   38        6.605812   0.000000
   39        6.893946   0.000000
   40        6.895195   0.000000
   41        7.250727   0.000000
   42        7.288887   0.000000
   43        7.840575   0.000000
   44        7.840843   0.000000
   45        8.209022   0.000000
   46        8.245486   0.000000
   47        8.717288   0.000000
   48        8.747255   0.000000
   49        9.052239   0.000000
   50        9.054212   0.000000
   51        9.380066   0.000000
   52        9.399085   0.000000
   53        9.617098   0.000000
   54        9.625684   0.000000
   55       10.611540   0.000000
   56       10.657288   0.000000
   57       10.690465   0.000000
   58       10.693907   0.000000
   59       11.059907   0.000000
   60       11.060774   0.000000
 
  0.1944444E+00  0.3888889E+00  0.0000000E+00  0.2040816E-01
    1      -15.753235   1.000000
    2      -15.741880   1.000000
    3      -15.279566   1.000000
    4      -15.278095   1.000000
    5       -7.958640   1.000000
    6       -7.945660   1.000000
    7       -7.078041   1.000000
    8       -7.057316   1.000000
    9       -6.749548   1.000000
   10       -6.738259   1.000000
   11       -6.348756   1.000000
   12       -6.325309   1.000000
   13       -5.186995   1.000000
   14       -5.122571   1.000000
   15       -4.332906   1.000000
   16       -4.306196   1.000000
   17       -3.842215   1.000000
   18       -3.748396   1.000000
   19       -1.220943   0.000000
   20       -1.145266   0.000000
   21       -0.544490   0.000000
   22       -0.538933   0.000000
   23       -0.289575   0.000000
   24       -0.249919   0.000000
   25        1.165320   0.000000
   26        1.183947   0.000000
   27        4.363778   0.000000
   28        4.378111   0.000000
   29        4.537394   0.000000
   30        4.538914   0.000000
   31        5.230327   0.000000
   32        5.234489   0.000000
   33        5.367396   0.000000
   34        5.395128   0.000000
   35        5.794324   0.000000
   36        5.794488   0.000000
   37        6.362447   0.000000
   38        6.376708   0.000000
   39        6.692506   0.000000
   40        6.693096   0.000000
   41        7.331101   0.000000
   42        7.389872   0.000000
   43        7.445354   0.000000
   44        7.452300   0.000000
   45        8.008615   0.000000
   46        8.034674   0.000000
   47        8.436283   0.000000
   48        8.467434   0.000000
   49        8.745437   0.000000
   50        8.751237   0.000000
   51        9.047756   0.000000
   52        9.069500   0.000000
   53        9.474361   0.000000
   54        9.491679   0.000000
   55       10.273609   0.000000
   56       10.316443   0.000000
   57       10.532635   0.000000
   58       10.533153   0.000000
   59       11.355333   0.000000
   60       11.364980   0.000000
 
  0.1666667E+00  0.3333333E+00  0.0000000E+00  0.2040816E-01
    1      -16.036485   1.000000
    2      -16.029245   1.000000
    3      -15.423941   1.000000
    4      -15.422979   1.000000
    5       -7.863115   1.000000
    6       -7.848703   1.000000
    7       -6.803840   1.000000
    8       -6.798448   1.000000
    9       -6.640470   1.000000
   10       -6.611655   1.000000
   11       -6.196408   1.000000
   12       -6.169939   1.000000
   13       -4.936706   1.000000
   14       -4.867933   1.000000
   15       -4.171064   1.000000
   16       -4.136214   1.000000
   17       -3.873382   1.000000
   18       -3.796265   1.000000
   19       -1.270134   0.000000
   20       -1.204923   0.000000
   21       -0.636187   0.000000
   22       -0.622941   0.000000
   23       -0.445442   0.000000
   24       -0.388298   0.000000
   25        0.979948   0.000000
   26        1.017384   0.000000
   27        3.895060   0.000000
   28        3.901915   0.000000
   29        4.035222   0.000000
   30        4.036340   0.000000
   31        4.658774   0.000000
   32        4.660311   0.000000
   33        5.271932   0.000000
   34        5.272124   0.000000
   35        5.693319   0.000000
   36        5.715338   0.000000
   37        5.966687   0.000000
   38        5.986085   0.000000
   39        6.657561   0.000000
   40        6.659725   0.000000
   41        7.120838   0.000000
   42        7.124933   0.000000
   43        7.160636   0.000000
   44        7.194008   0.000000
   45        7.754992   0.000000
   46        7.773550   0.000000
   47        8.520279   0.000000
   48        8.542095   0.000000
   49        8.649514   0.000000
   50        8.705182   0.000000
   51        9.052378   0.000000
   52        9.100179   0.000000
   53        9.324784   0.000000
   54        9.345093   0.000000
   55       10.055270   0.000000
   56       10.077510   0.000000
   57       10.094340   0.000000
   58       10.103680   0.000000
   59       11.818659   0.000000
   60       11.841876   0.000000
 
  0.1388889E+00  0.2777778E+00  0.0000000E+00  0.2040816E-01
    1      -16.313097   1.000000
    2      -16.308898   1.000000
    3      -15.564665   1.000000
    4      -15.564097   1.000000
    5       -7.897475   1.000000
    6       -7.888500   1.000000
    7       -6.697251   1.000000
    8       -6.694277   1.000000
    9       -6.298908   1.000000
   10       -6.280772   1.000000
   11       -5.833161   1.000000
   12       -5.820571   1.000000
   13       -4.885044   1.000000
   14       -4.832950   1.000000
   15       -4.065300   1.000000
   16       -4.027510   1.000000
   17       -3.761505   1.000000
   18       -3.716585   1.000000
   19       -1.178367   0.000000
   20       -1.139052   0.000000
   21       -0.666907   0.000000
   22       -0.658515   0.000000
   23       -0.569904   0.000000
   24       -0.500949   0.000000
   25        0.739956   0.000000
   26        0.787574   0.000000
   27        3.460162   0.000000
   28        3.463972   0.000000
   29        3.584821   0.000000
   30        3.585421   0.000000
   31        4.168214   0.000000
   32        4.169204   0.000000
   33        4.809442   0.000000
   34        4.809614   0.000000
   35        5.401924   0.000000
   36        5.402599   0.000000
   37        6.028924   0.000000
   38        6.038721   0.000000
   39        6.487111   0.000000
   40        6.487697   0.000000
   41        6.734671   0.000000
   42        6.783738   0.000000
   43        7.157118   0.000000
   44        7.159303   0.000000
   45        7.498923   0.000000
   46        7.514237   0.000000
   47        8.355005   0.000000
   48        8.362017   0.000000
   49        8.597074   0.000000
   50        8.645207   0.000000
   51        9.095226   0.000000
   52        9.109529   0.000000
   53        9.712211   0.000000
   54        9.726308   0.000000
   55        9.870938   0.000000
   56        9.875414   0.000000
   57       10.033860   0.000000
   58       10.106989   0.000000
   59       11.193564   0.000000
   60       11.203225   0.000000
 
  0.1111111E+00  0.2222222E+00  0.0000000E+00  0.2040816E-01
    1      -16.563870   1.000000
    2      -16.561726   1.000000
    3      -15.692465   1.000000
    4      -15.692171   1.000000
    5       -8.063065   1.000000
    6       -8.059177   1.000000
    7       -6.429976   1.000000
    8       -6.421146   1.000000
    9       -6.013072   1.000000
   10       -6.006560   1.000000
   11       -5.370431   1.000000
   12       -5.367679   1.000000
   13       -5.006389   1.000000
   14       -4.974345   1.000000
   15       -4.023065   1.000000
   16       -3.988279   1.000000
   17       -3.556990   1.000000
   18       -3.538895   1.000000
   19       -0.999059   0.000000
   20       -0.990367   0.000000
   21       -0.638782   0.000000
   22       -0.613225   0.000000
   23       -0.581957   0.000000
   24       -0.530881   0.000000
   25        0.460510   0.000000
   26        0.511513   0.000000
   27        3.084590   0.000000
   28        3.086820   0.000000
   29        3.200685   0.000000
   30        3.200935   0.000000
   31        3.763196   0.000000
   32        3.763833   0.000000
   33        4.420232   0.000000
   34        4.420318   0.000000
   35        5.003679   0.000000
   36        5.005040   0.000000
   37        5.637672   0.000000
   38        5.638469   0.000000
   39        6.183519   0.000000
   40        6.183531   0.000000
   41        6.723327   0.000000
   42        6.747678   0.000000
   43        7.282358   0.000000
   44        7.305076   0.000000
   45        7.445687   0.000000
   46        7.447500   0.000000
   47        8.088538   0.000000
   48        8.097411   0.000000
   49        8.709273   0.000000
   50        8.758151   0.000000
   51        8.804429   0.000000
   52        8.810524   0.000000
   53        9.536483   0.000000
   54        9.572693   0.000000
   55        9.952806   0.000000
   56        9.954592   0.000000
   57       10.190627   0.000000
   58       10.225956   0.000000
   59       11.268814   0.000000
   60       11.365304   0.000000
 
  0.8333333E-01  0.1666667E+00  0.0000000E+00  0.2040816E-01
    1      -16.773694   1.000000
    2      -16.772792   1.000000
    3      -15.799679   1.000000
    4      -15.799554   1.000000
    5       -8.265649   1.000000
    6       -8.264241   1.000000
    7       -6.096947   1.000000
    8       -6.087151   1.000000
    9       -5.709405   1.000000
   10       -5.709290   1.000000
   11       -5.184238   1.000000
   12       -5.162083   1.000000
   13       -4.955316   1.000000
   14       -4.945538   1.000000
   15       -4.049169   1.000000
   16       -4.020551   1.000000
   17       -3.381796   1.000000
   18       -3.376691   1.000000
   19       -0.772554   0.000000
   20       -0.760746   0.000000
   21       -0.600445   0.000000
   22       -0.549908   0.000000
   23       -0.438343   0.000000
   24       -0.409777   0.000000
   25        0.178329   0.000000
   26        0.226849   0.000000
   27        2.775508   0.000000
   28        2.776782   0.000000
   29        2.892892   0.000000
   30        2.892977   0.000000
   31        3.443012   0.000000
   32        3.443393   0.000000
   33        4.111551   0.000000
   34        4.111579   0.000000
   35        4.585360   0.000000
   36        4.587327   0.000000
   37        5.089414   0.000000
   38        5.090618   0.000000
   39        5.909242   0.000000
   40        5.909258   0.000000
   41        6.754250   0.000000
   42        6.757305   0.000000
   43        7.235662   0.000000
   44        7.253219   0.000000
   45        7.311228   0.000000
   46        7.318658   0.000000
   47        8.190562   0.000000
   48        8.192693   0.000000
   49        8.640102   0.000000
   50        8.646579   0.000000
   51        8.718067   0.000000
   52        8.755413   0.000000
   53        9.285741   0.000000
   54        9.304904   0.000000
   55        9.923866   0.000000
   56        9.928980   0.000000
   57       10.061285   0.000000
   58       10.064506   0.000000
   59       11.382666   0.000000
   60       11.388937   0.000000
 
  0.5555556E-01  0.1111111E+00  0.0000000E+00  0.2040816E-01
    1      -16.931354   1.000000
    2      -16.931088   1.000000
    3      -15.880430   1.000000
    4      -15.880393   1.000000
    5       -8.441410   1.000000
    6       -8.441031   1.000000
    7       -5.785196   1.000000
    8       -5.777571   1.000000
    9       -5.401557   1.000000
   10       -5.388456   1.000000
   11       -5.336633   1.000000
   12       -5.312792   1.000000
   13       -4.646486   1.000000
   14       -4.633858   1.000000
   15       -4.143371   1.000000
   16       -4.124013   1.000000
   17       -3.279739   1.000000
   18       -3.278901   1.000000
   19       -0.506511   0.000000
   20       -0.485061   0.000000
   21       -0.478569   0.000000
   22       -0.431864   0.000000
   23       -0.280601   0.000000
   24       -0.258212   0.000000
   25       -0.060443   0.000000
   26       -0.019908   0.000000
   27        2.534557   0.000000
   28        2.535152   0.000000
   29        2.668128   0.000000
   30        2.668153   0.000000
   31        3.206078   0.000000
   32        3.206261   0.000000
   33        3.887978   0.000000
   34        3.887979   0.000000
   35        4.103097   0.000000
   36        4.104351   0.000000
   37        4.743403   0.000000
   38        4.743693   0.000000
   39        5.702054   0.000000
   40        5.702059   0.000000
   41        6.643192   0.000000
   42        6.643399   0.000000
   43        6.708063   0.000000
   44        6.708345   0.000000
   45        7.546775   0.000000
   46        7.562685   0.000000
   47        8.199771   0.000000
   48        8.199836   0.000000
   49        8.420745   0.000000
   50        8.439165   0.000000
   51        9.053271   0.000000
   52        9.059334   0.000000
   53        9.103425   0.000000
   54        9.108602   0.000000
   55        9.915370   0.000000
   56        9.916918   0.000000
   57       10.040572   0.000000
   58       10.042760   0.000000
   59       11.319362   0.000000
   60       11.321014   0.000000
 
  0.2777778E-01  0.5555556E-01  0.0000000E+00  0.2040816E-01
    1      -17.029044   1.000000
    2      -17.029011   1.000000
    3      -15.930539   1.000000
    4      -15.930534   1.000000
    5       -8.557607   1.000000
    6       -8.557562   1.000000
    7       -5.567782   1.000000
    8       -5.564219   1.000000
    9       -5.432631   1.000000
   10       -5.429359   1.000000
   11       -5.085039   1.000000
   12       -5.084608   1.000000
   13       -4.466926   1.000000
   14       -4.459028   1.000000
   15       -4.286340   1.000000
   16       -4.277695   1.000000
   17       -3.235771   1.000000
   18       -3.235723   1.000000
   19       -0.353167   0.000000
   20       -0.342019   0.000000
   21       -0.244318   0.000000
   22       -0.241716   0.000000
   23       -0.200755   0.000000
   24       -0.189287   0.000000
   25       -0.146511   0.000000
   26       -0.145301   0.000000
   27        2.367439   0.000000
   28        2.367560   0.000000
   29        2.530845   0.000000
   30        2.530849   0.000000
   31        3.053007   0.000000
   32        3.053046   0.000000
   33        3.718282   0.000000
   34        3.718505   0.000000
   35        3.752513   0.000000
   36        3.752524   0.000000
   37        4.572228   0.000000
   38        4.572260   0.000000
   39        5.574270   0.000000
   40        5.574271   0.000000
   41        6.260921   0.000000
   42        6.261005   0.000000
   43        6.544927   0.000000
   44        6.544936   0.000000
   45        7.853472   0.000000
   46        7.861067   0.000000
   47        8.099094   0.000000
   48        8.099477   0.000000
   49        8.135558   0.000000
   50        8.143108   0.000000
   51        8.904843   0.000000
   52        8.905178   0.000000
   53        9.664021   0.000000
   54        9.666338   0.000000
   55        9.961186   0.000000
   56        9.968512   0.000000
   57        9.989655   0.000000
   58        9.994479   0.000000
   59       11.241705   0.000000
   60       11.241878   0.000000
 
  0.0000000E+00  0.0000000E+00  0.0000000E+00  0.2040816E-01
    1      -17.062131   1.000000
    2      -17.062131   1.000000
    3      -15.947518   1.000000
    4      -15.947518   1.000000
    5       -8.598019   1.000000
    6       -8.598019   1.000000
    7       -5.510755   1.000000
    8       -5.510755   1.000000
    9       -5.440905   1.000000
   10       -5.440905   1.000000
   11       -4.926699   1.000000
   12       -4.926699   1.000000
   13       -4.439621   1.000000
   14       -4.439621   1.000000
   15       -4.353039   1.000000
   16       -4.353039   1.000000
   17       -3.224552   1.000000
   18       -3.224552   1.000000
   19       -0.315587   0.000000
   20       -0.315587   0.000000
   21       -0.240583   0.000000
   22       -0.240583   0.000000
   23       -0.117790   0.000000
   24       -0.117790   0.000000
   25       -0.110688   0.000000
   26       -0.110688   0.000000
   27        2.302723   0.000000
   28        2.302723   0.000000
   29        2.484522   0.000000
   30        2.484522   0.000000
   31        2.997119   0.000000
   32        2.997119   0.000000
   33        3.577539   0.000000
   34        3.577539   0.000000
   35        3.707045   0.000000
   36        3.707045   0.000000
   37        4.518749   0.000000
   38        4.518749   0.000000
   39        5.531117   0.000000
   40        5.531117   0.000000
   41        6.090703   0.000000
   42        6.090703   0.000000
   43        6.508705   0.000000
   44        6.508705   0.000000
   45        7.983590   0.000000
   46        7.983590   0.000000
   47        8.061551   0.000000
   48        8.061551   0.000000
   49        8.063953   0.000000
   50        8.063953   0.000000
   51        8.793702   0.000000
   52        8.793702   0.000000
   53        9.944728   0.000000
   54        9.944728   0.000000
   55        9.967623   0.000000
   56        9.967623   0.000000
   57        9.996195   0.000000
   58        9.996195   0.000000
   59       11.208698   0.000000
   60       11.208698   0.000000
 
 -0.2777778E-01 -0.5555556E-01  0.0000000E+00  0.2040816E-01
    1      -17.029044   1.000000
    2      -17.029011   1.000000
    3      -15.930539   1.000000
    4      -15.930534   1.000000
    5       -8.557607   1.000000
    6       -8.557562   1.000000
    7       -5.567782   1.000000
    8       -5.564219   1.000000
    9       -5.432631   1.000000
   10       -5.429359   1.000000
   11       -5.085039   1.000000
   12       -5.084608   1.000000
   13       -4.466926   1.000000
   14       -4.459028   1.000000
   15       -4.286340   1.000000
   16       -4.277695   1.000000
   17       -3.235771   1.000000
   18       -3.235723   1.000000
   19       -0.353167   0.000000
   20       -0.342019   0.000000
   21       -0.244318   0.000000
   22       -0.241716   0.000000
   23       -0.200755   0.000000
   24       -0.189287   0.000000
   25       -0.146511   0.000000
   26       -0.145301   0.000000
   27        2.367439   0.000000
   28        2.367560   0.000000
   29        2.530845   0.000000
   30        2.530849   0.000000
   31        3.053007   0.000000
   32        3.053046   0.000000
   33        3.718282   0.000000
   34        3.718505   0.000000
   35        3.752513   0.000000
   36        3.752524   0.000000
   37        4.572228   0.000000
   38        4.572260   0.000000
   39        5.574270   0.000000
   40        5.574271   0.000000
   41        6.260921   0.000000
   42        6.261005   0.000000
   43        6.544927   0.000000
   44        6.544936   0.000000
   45        7.853472   0.000000
   46        7.861067   0.000000
   47        8.099094   0.000000
   48        8.099477   0.000000
   49        8.135558   0.000000
   50        8.143108   0.000000
   51        8.904843   0.000000
   52        8.905178   0.000000
   53        9.664021   0.000000
   54        9.666338   0.000000
   55        9.961186   0.000000
   56        9.968512   0.000000
   57        9.989655   0.000000
   58        9.994479   0.000000
   59       11.241705   0.000000
   60       11.241878   0.000000
 
 -0.5555556E-01 -0.1111111E+00  0.0000000E+00  0.2040816E-01
    1      -16.931354   1.000000
    2      -16.931088   1.000000
    3      -15.880430   1.000000
    4      -15.880393   1.000000
    5       -8.441410   1.000000
    6       -8.441031   1.000000
    7       -5.785196   1.000000
    8       -5.777571   1.000000
    9       -5.401557   1.000000
   10       -5.388456   1.000000
   11       -5.336633   1.000000
   12       -5.312792   1.000000
   13       -4.646486   1.000000
   14       -4.633858   1.000000
   15       -4.143371   1.000000
   16       -4.124013   1.000000
   17       -3.279739   1.000000
   18       -3.278901   1.000000
   19       -0.506511   0.000000
   20       -0.485061   0.000000
   21       -0.478569   0.000000
   22       -0.431864   0.000000
   23       -0.280601   0.000000
   24       -0.258212   0.000000
   25       -0.060443   0.000000
   26       -0.019908   0.000000
   27        2.534557   0.000000
   28        2.535152   0.000000
   29        2.668128   0.000000
   30        2.668153   0.000000
   31        3.206078   0.000000
   32        3.206261   0.000000
   33        3.887978   0.000000
   34        3.887979   0.000000
   35        4.103097   0.000000
   36        4.104351   0.000000
   37        4.743403   0.000000
   38        4.743693   0.000000
   39        5.702054   0.000000
   40        5.702059   0.000000
   41        6.643192   0.000000
   42        6.643399   0.000000
   43        6.708063   0.000000
   44        6.708345   0.000000
   45        7.546775   0.000000
   46        7.562685   0.000000
   47        8.199771   0.000000
   48        8.199836   0.000000
   49        8.420745   0.000000
   50        8.439165   0.000000
   51        9.053271   0.000000
   52        9.059334   0.000000
   53        9.103425   0.000000
   54        9.108602   0.000000
   55        9.915370   0.000000
   56        9.916918   0.000000
   57       10.040572   0.000000
   58       10.042760   0.000000
   59       11.319362   0.000000
   60       11.321014   0.000000
 
 -0.8333333E-01 -0.1666667E+00  0.0000000E+00  0.2040816E-01
    1      -16.773694   1.000000
    2      -16.772792   1.000000
    3      -15.799679   1.000000
    4      -15.799554   1.000000
    5       -8.265649   1.000000
    6       -8.264241   1.000000
    7       -6.096947   1.000000
    8       -6.087151   1.000000
    9       -5.709405   1.000000
   10       -5.709290   1.000000
   11       -5.184238   1.000000
   12       -5.162083   1.000000
   13       -4.955316   1.000000
   14       -4.945538   1.000000
   15       -4.049169   1.000000
   16       -4.020551   1.000000
   17       -3.381796   1.000000
   18       -3.376691   1.000000
   19       -0.772554   0.000000
   20       -0.760746   0.000000
   21       -0.600445   0.000000
   22       -0.549908   0.000000
   23       -0.438343   0.000000
   24       -0.409777   0.000000
   25        0.178329   0.000000
   26        0.226849   0.000000
   27        2.775508   0.000000
   28        2.776782   0.000000
   29        2.892892   0.000000
   30        2.892977   0.000000
   31        3.443012   0.000000
   32        3.443393   0.000000
   33        4.111551   0.000000
   34        4.111579   0.000000
   35        4.585360   0.000000
   36        4.587327   0.000000
   37        5.089414   0.000000
   38        5.090618   0.000000
   39        5.909242   0.000000
   40        5.909258   0.000000
   41        6.754250   0.000000
   42        6.757305   0.000000
   43        7.235662   0.000000
   44        7.253219   0.000000
   45        7.311228   0.000000
   46        7.318658   0.000000
   47        8.190562   0.000000
   48        8.192693   0.000000
   49        8.640102   0.000000
   50        8.646579   0.000000
   51        8.718067   0.000000
   52        8.755413   0.000000
   53        9.285741   0.000000
   54        9.304904   0.000000
   55        9.923866   0.000000
   56        9.928980   0.000000
   57       10.061285   0.000000
   58       10.064506   0.000000
   59       11.382665   0.000000
   60       11.388928   0.000000
 
 -0.1111111E+00 -0.2222222E+00  0.0000000E+00  0.2040816E-01
    1      -16.563870   1.000000
    2      -16.561726   1.000000
    3      -15.692465   1.000000
    4      -15.692171   1.000000
    5       -8.063065   1.000000
    6       -8.059177   1.000000
    7       -6.429976   1.000000
    8       -6.421146   1.000000
    9       -6.013072   1.000000
   10       -6.006560   1.000000
   11       -5.370431   1.000000
   12       -5.367679   1.000000
   13       -5.006389   1.000000
   14       -4.974345   1.000000
   15       -4.023065   1.000000
   16       -3.988279   1.000000
   17       -3.556990   1.000000
   18       -3.538895   1.000000
   19       -0.999059   0.000000
   20       -0.990367   0.000000
   21       -0.638782   0.000000
   22       -0.613225   0.000000
   23       -0.581957   0.000000
   24       -0.530881   0.000000
   25        0.460510   0.000000
   26        0.511513   0.000000
   27        3.084590   0.000000
   28        3.086820   0.000000
   29        3.200685   0.000000
   30        3.200935   0.000000
   31        3.763196   0.000000
   32        3.763833   0.000000
   33        4.420232   0.000000
   34        4.420318   0.000000
   35        5.003679   0.000000
   36        5.005040   0.000000
   37        5.637672   0.000000
   38        5.638469   0.000000
   39        6.183519   0.000000
   40        6.183531   0.000000
   41        6.723327   0.000000
   42        6.747678   0.000000
   43        7.282358   0.000000
   44        7.305076   0.000000
   45        7.445687   0.000000
   46        7.447500   0.000000
   47        8.088538   0.000000
   48        8.097411   0.000000
   49        8.709273   0.000000
   50        8.758151   0.000000
   51        8.804429   0.000000
   52        8.810524   0.000000
   53        9.536483   0.000000
   54        9.572693   0.000000
   55        9.952806   0.000000
   56        9.954592   0.000000
   57       10.190627   0.000000
   58       10.225954   0.000000
   59       11.267921   0.000000
   60       11.361022   0.000000
 
 -0.1388889E+00 -0.2777778E+00  0.0000000E+00  0.2040816E-01
    1      -16.313097   1.000000
    2      -16.308898   1.000000
    3      -15.564665   1.000000
    4      -15.564097   1.000000
    5       -7.897475   1.000000
    6       -7.888500   1.000000
    7       -6.697251   1.000000
    8       -6.694277   1.000000
    9       -6.298908   1.000000
   10       -6.280772   1.000000
   11       -5.833161   1.000000
   12       -5.820571   1.000000
   13       -4.885044   1.000000
   14       -4.832950   1.000000
   15       -4.065300   1.000000
   16       -4.027510   1.000000
   17       -3.761505   1.000000
   18       -3.716585   1.000000
   19       -1.178367   0.000000
   20       -1.139052   0.000000
   21       -0.666907   0.000000
   22       -0.658515   0.000000
   23       -0.569904   0.000000
   24       -0.500949   0.000000
   25        0.739956   0.000000
   26        0.787574   0.000000
   27        3.460162   0.000000
   28        3.463972   0.000000
   29        3.584821   0.000000
   30        3.585421   0.000000
   31        4.168214   0.000000
   32        4.169204   0.000000
   33        4.809442   0.000000
   34        4.809614   0.000000
   35        5.401924   0.000000
   36        5.402599   0.000000
   37        6.028924   0.000000
   38        6.038721   0.000000
   39        6.487111   0.000000
   40        6.487697   0.000000
   41        6.734671   0.000000
   42        6.783738   0.000000
   43        7.157118   0.000000
   44        7.159303   0.000000
   45        7.498923   0.000000
   46        7.514237   0.000000
   47        8.355005   0.000000
   48        8.362017   0.000000
   49        8.597074   0.000000
   50        8.645207   0.000000
   51        9.095226   0.000000
   52        9.109529   0.000000
   53        9.712211   0.000000
   54        9.726307   0.000000
   55        9.870938   0.000000
   56        9.875414   0.000000
   57       10.033860   0.000000
   58       10.106989   0.000000
   59       11.195622   0.000000
   60       11.204932   0.000000
 
 -0.1666667E+00 -0.3333333E+00  0.0000000E+00  0.2040816E-01
    1      -16.036485   1.000000
    2      -16.029245   1.000000
    3      -15.423941   1.000000
    4      -15.422979   1.000000
    5       -7.863115   1.000000
    6       -7.848703   1.000000
    7       -6.803840   1.000000
    8       -6.798448   1.000000
    9       -6.640470   1.000000
   10       -6.611655   1.000000
   11       -6.196408   1.000000
   12       -6.169939   1.000000
   13       -4.936706   1.000000
   14       -4.867933   1.000000
   15       -4.171064   1.000000
   16       -4.136214   1.000000
   17       -3.873382   1.000000
   18       -3.796265   1.000000
   19       -1.270134   0.000000
   20       -1.204923   0.000000
   21       -0.636187   0.000000
   22       -0.622941   0.000000
   23       -0.445442   0.000000
   24       -0.388298   0.000000
   25        0.979948   0.000000
   26        1.017384   0.000000
   27        3.895060   0.000000
   28        3.901915   0.000000
   29        4.035222   0.000000
   30        4.036340   0.000000
   31        4.658774   0.000000
   32        4.660311   0.000000
   33        5.271932   0.000000
   34        5.272124   0.000000
   35        5.693319   0.000000
   36        5.715338   0.000000
   37        5.966687   0.000000
   38        5.986085   0.000000
   39        6.657561   0.000000
   40        6.659725   0.000000
   41        7.120838   0.000000
   42        7.124933   0.000000
   43        7.160636   0.000000
   44        7.194008   0.000000
   45        7.754992   0.000000
   46        7.773550   0.000000
   47        8.520279   0.000000
   48        8.542095   0.000000
   49        8.649514   0.000000
   50        8.705182   0.000000
   51        9.052378   0.000000
   52        9.100179   0.000000
   53        9.324784   0.000000
   54        9.345093   0.000000
   55       10.055270   0.000000
   56       10.077510   0.000000
   57       10.094340   0.000000
   58       10.103680   0.000000
   59       11.818699   0.000000
   60       11.871468   0.000000
 
 -0.1944444E+00 -0.3888889E+00  0.0000000E+00  0.2040816E-01
    1      -15.753235   1.000000
    2      -15.741880   1.000000
    3      -15.279566   1.000000
    4      -15.278095   1.000000
    5       -7.958640   1.000000
    6       -7.945660   1.000000
    7       -7.078041   1.000000
    8       -7.057316   1.000000
    9       -6.749548   1.000000
   10       -6.738259   1.000000
   11       -6.348756   1.000000
   12       -6.325309   1.000000
   13       -5.186995   1.000000
   14       -5.122571   1.000000
   15       -4.332906   1.000000
   16       -4.306196   1.000000
   17       -3.842215   1.000000
   18       -3.748396   1.000000
   19       -1.220943   0.000000
   20       -1.145266   0.000000
   21       -0.544490   0.000000
   22       -0.538933   0.000000
   23       -0.289575   0.000000
   24       -0.249919   0.000000
   25        1.165320   0.000000
   26        1.183947   0.000000
   27        4.363778   0.000000
   28        4.378111   0.000000
   29        4.537394   0.000000
   30        4.538914   0.000000
   31        5.230327   0.000000
   32        5.234489   0.000000
   33        5.367396   0.000000
   34        5.395128   0.000000
   35        5.794324   0.000000
   36        5.794488   0.000000
   37        6.362447   0.000000
   38        6.376708   0.000000
   39        6.692506   0.000000
   40        6.693096   0.000000
   41        7.331101   0.000000
   42        7.389872   0.000000
   43        7.445354   0.000000
   44        7.452300   0.000000
   45        8.008615   0.000000
   46        8.034674   0.000000
   47        8.436283   0.000000
   48        8.467434   0.000000
   49        8.745437   0.000000
   50        8.751237   0.000000
   51        9.047756   0.000000
   52        9.069500   0.000000
   53        9.474361   0.000000
   54        9.491679   0.000000
   55       10.273609   0.000000
   56       10.316443   0.000000
   57       10.532635   0.000000
   58       10.533153   0.000000
   59       11.355335   0.000000
   60       11.364980   0.000000
 
 -0.2222222E+00 -0.4444444E+00  0.0000000E+00  0.2040816E-01
    1      -15.486181   1.000000
    2      -15.469772   1.000000
    3      -15.142221   1.000000
    4      -15.140163   1.000000
    5       -8.061432   1.000000
    6       -8.055721   1.000000
    7       -7.511249   1.000000
    8       -7.496480   1.000000
    9       -6.661177   1.000000
   10       -6.650019   1.000000
   11       -6.371174   1.000000
   12       -6.350363   1.000000
   13       -5.542903   1.000000
   14       -5.489397   1.000000
   15       -4.541577   1.000000
   16       -4.523150   1.000000
   17       -3.733691   1.000000
   18       -3.631507   1.000000
   19       -1.049795   0.000000
   20       -0.995768   0.000000
   21       -0.450014   0.000000
   22       -0.418881   0.000000
   23       -0.151314   0.000000
   24       -0.135375   0.000000
   25        1.303420   0.000000
   26        1.312501   0.000000
   27        4.671000   0.000000
   28        4.695338   0.000000
   29        5.067814   0.000000
   30        5.070950   0.000000
   31        5.105950   0.000000
   32        5.150291   0.000000
   33        5.883708   0.000000
   34        5.884627   0.000000
   35        6.342230   0.000000
   36        6.343546   0.000000
   37        6.561911   0.000000
   38        6.605812   0.000000
   39        6.893946   0.000000
   40        6.895195   0.000000
   41        7.250727   0.000000
   42        7.288887   0.000000
   43        7.840575   0.000000
   44        7.840843   0.000000
   45        8.209022   0.000000
   46        8.245486   0.000000
   47        8.717288   0.000000
   48        8.747255   0.000000
   49        9.052239   0.000000
   50        9.054212   0.000000
   51        9.380066   0.000000
   52        9.399085   0.000000
   53        9.617098   0.000000
   54        9.625684   0.000000
   55       10.611540   0.000000
   56       10.657288   0.000000
   57       10.690465   0.000000
   58       10.693907   0.000000
   59       11.059908   0.000000
   60       11.060775   0.000000
 
 -0.2500000E+00 -0.5000000E+00  0.0000000E+00  0.2040816E-01
    1      -15.259343   1.000000
    2      -15.237450   1.000000
    3      -15.023196   1.000000
    4      -15.020554   1.000000
    5       -8.086661   1.000000
    6       -8.082321   1.000000
    7       -7.877462   1.000000
    8       -7.866372   1.000000
    9       -6.623027   1.000000
   10       -6.613280   1.000000
   11       -6.308687   1.000000
   12       -6.288365   1.000000
   13       -5.934881   1.000000
   14       -5.893587   1.000000
   15       -4.778211   1.000000
   16       -4.768575   1.000000
   17       -3.567374   1.000000
   18       -3.456713   1.000000
   19       -0.933194   0.000000
   20       -0.932326   0.000000
   21       -0.301664   0.000000
   22       -0.197233   0.000000
   23       -0.086270   0.000000
   24       -0.074242   0.000000
   25        1.416137   0.000000
   26        1.456020   0.000000
   27        4.416049   0.000000
   28        4.432010   0.000000
   29        5.304395   0.000000
   30        5.358579   0.000000
   31        5.599252   0.000000
   32        5.600822   0.000000
   33        6.248251   0.000000
   34        6.283092   0.000000
   35        6.730413   0.000000
   36        6.735125   0.000000
   37        6.860315   0.000000
   38        6.861788   0.000000
   39        7.365137   0.000000
   40        7.368457   0.000000
   41        7.754744   0.000000
   42        7.764739   0.000000
   43        8.270645   0.000000
   44        8.273322   0.000000
   45        8.461894   0.000000
   46        8.495105   0.000000
   47        9.164550   0.000000
   48        9.193021   0.000000
   49        9.284249   0.000000
   50        9.289431   0.000000
   51        9.659903   0.000000
   52        9.664242   0.000000
   53        9.816361   0.000000
   54        9.823818   0.000000
   55       10.150172   0.000000
   56       10.153755   0.000000
   57       11.171023   0.000000
   58       11.184961   0.000000
   59       11.193034   0.000000
   60       11.243030   0.000000
 
 -0.2777778E+00 -0.5555556E+00  0.0000000E+00  0.2040816E-01
    1      -15.092882   1.000000
    2      -15.066004   1.000000
    3      -14.932821   1.000000
    4      -14.929716   1.000000
    5       -8.147637   1.000000
    6       -8.139209   1.000000
    7       -7.997489   1.000000
    8       -7.981322   1.000000
    9       -6.672442   1.000000
   10       -6.658041   1.000000
   11       -6.315605   1.000000
   12       -6.282937   1.000000
   13       -6.186246   1.000000
   14       -6.152436   1.000000
   15       -5.016411   1.000000
   16       -5.015492   1.000000
   17       -3.361854   1.000000
   18       -3.238986   1.000000
   19       -1.042569   0.000000
   20       -1.024526   0.000000
   21       -0.110167   0.000000
   22       -0.109716   0.000000
   23        0.001723   0.000000
   24        0.112487   0.000000
   25        1.542822   0.000000
   26        1.606769   0.000000
   27        4.151823   0.000000
   28        4.193093   0.000000
   29        5.089377   0.000000
   30        5.162264   0.000000
   31        6.077227   0.000000
   32        6.081596   0.000000
   33        6.624950   0.000000
   34        6.632540   0.000000
   35        7.379102   0.000000
   36        7.380180   0.000000
   37        7.533628   0.000000
   38        7.537552   0.000000
   39        8.031170   0.000000
   40        8.035166   0.000000
   41        8.353890   0.000000
   42        8.377554   0.000000
   43        8.642193   0.000000
   44        8.651473   0.000000
   45        8.737651   0.000000
   46        8.760310   0.000000
   47        9.181819   0.000000
   48        9.194695   0.000000
   49        9.383830   0.000000
   50        9.384076   0.000000
   51        9.765130   0.000000
   52        9.767068   0.000000
   53       10.054190   0.000000
   54       10.068971   0.000000
   55       10.368593   0.000000
   56       10.371239   0.000000
   57       10.615020   0.000000
   58       10.616501   0.000000
   59       10.702098   0.000000
   60       10.705306   0.000000
 
 -0.3055556E+00 -0.6111111E+00  0.0000000E+00  0.2040816E-01
    1      -14.996841   1.000000
    2      -14.966532   1.000000
    3      -14.878179   1.000000
    4      -14.874817   1.000000
    5       -8.308200   1.000000
    6       -8.300797   1.000000
    7       -7.790608   1.000000
    8       -7.763105   1.000000
    9       -6.892473   1.000000
   10       -6.861450   1.000000
   11       -6.513981   1.000000
   12       -6.512982   1.000000
   13       -6.056879   1.000000
   14       -6.015778   1.000000
   15       -5.224656   1.000000
   16       -5.210114   1.000000
   17       -3.181029   1.000000
   18       -3.042544   1.000000
   19       -1.206855   0.000000
   20       -1.200163   0.000000
   21       -0.163838   0.000000
   22       -0.137182   0.000000
   23        0.222539   0.000000
   24        0.362044   0.000000
   25        1.655792   0.000000
   26        1.732908   0.000000
   27        4.073959   0.000000
   28        4.142858   0.000000
   29        4.732754   0.000000
   30        4.783689   0.000000
   31        6.437174   0.000000
   32        6.444010   0.000000
   33        7.170022   0.000000
   34        7.199102   0.000000
   35        7.854646   0.000000
   36        7.854731   0.000000
   37        8.389102   0.000000
   38        8.396663   0.000000
   39        8.609221   0.000000
   40        8.618437   0.000000
   41        8.772362   0.000000
   42        8.780596   0.000000
   43        8.802385   0.000000
   44        8.810509   0.000000
   45        8.929323   0.000000
   46        8.934799   0.000000
   47        9.153705   0.000000
   48        9.154096   0.000000
   49        9.567625   0.000000
   50        9.570953   0.000000
   51       10.036854   0.000000
   52       10.040389   0.000000
   53       10.087278   0.000000
   54       10.092105   0.000000
   55       10.093427   0.000000
   56       10.096485   0.000000
   57       10.136887   0.000000
   58       10.149699   0.000000
   59       10.511132   0.000000
   60       10.528659   0.000000
 
 -0.3333333E+00 -0.6666667E+00  0.0000000E+00  0.2040816E-01
    1      -14.967713   1.000000
    2      -14.936200   1.000000
    3      -14.860756   1.000000
    4      -14.857317   1.000000
    5       -8.359261   1.000000
    6       -8.352182   1.000000
    7       -7.612490   1.000000
    8       -7.577238   1.000000
    9       -7.093490   1.000000
   10       -7.062122   1.000000
   11       -6.571709   1.000000
   12       -6.564201   1.000000
   13       -5.995460   1.000000
   14       -5.946307   1.000000
   15       -5.313506   1.000000
   16       -5.289657   1.000000
   17       -3.109698   1.000000
   18       -2.962699   1.000000
   19       -1.284550   0.000000
   20       -1.282404   0.000000
   21       -0.193823   0.000000
   22       -0.163162   0.000000
   23        0.307987   0.000000
   24        0.451056   0.000000
   25        1.703603   0.000000
   26        1.784608   0.000000
   27        4.155805   0.000000
   28        4.272675   0.000000
   29        4.498881   0.000000
   30        4.501790   0.000000
   31        6.572167   0.000000
   32        6.579594   0.000000
   33        7.445297   0.000000
   34        7.484351   0.000000
   35        8.026600   0.000000
   36        8.033986   0.000000
   37        8.620259   0.000000
   38        8.633650   0.000000
   39        8.668092   0.000000
   40        8.670301   0.000000
   41        8.941610   0.000000
   42        8.961378   0.000000
   43        8.968360   0.000000
   44        8.982994   0.000000
   45        9.444399   0.000000
   46        9.450238   0.000000
   47        9.552568   0.000000
   48        9.558080   0.000000
   49        9.601024   0.000000
   50        9.606372   0.000000
   51        9.608508   0.000000
   52        9.610705   0.000000
   53        9.902339   0.000000
   54        9.904290   0.000000
   55       10.023921   0.000000
   56       10.049192   0.000000
   57       10.113634   0.000000
   58       10.140441   0.000000
   59       10.145078   0.000000
   60       10.199723   0.000000
