       N       E                     dE             d eps       ncg     rms          rms(c)
DAV:   1     0.932251233323E+02    0.93225E+02   -0.46093E+03  6016   0.345E+02
DAV:   2    -0.113670230586E+02   -0.10459E+03   -0.94255E+02  7736   0.102E+02
DAV:   3    -0.211481846022E+02   -0.97812E+01   -0.95702E+01  7324   0.306E+01
DAV:   4    -0.213232332390E+02   -0.17505E+00   -0.17489E+00  7232   0.488E+00
DAV:   5    -0.213276313780E+02   -0.43981E-02   -0.43978E-02  7488   0.735E-01
DAV:   6    -0.213278286274E+02   -0.19725E-03   -0.19725E-03  7456   0.144E-01
DAV:   7    -0.213278339473E+02   -0.53199E-05   -0.53199E-05  7836   0.223E-02
DAV:   8    -0.213278341804E+02   -0.23307E-06   -0.23294E-06  7480   0.452E-03
DAV:   9    -0.213278341923E+02   -0.11910E-07   -0.11768E-07  7412   0.871E-04
DAV:  10    -0.213278341930E+02   -0.66666E-09   -0.53867E-09  5832   0.195E-04
   1 F= -.21327834E+02 E0= -.21327834E+02  d E =-.328130E-16  mag=    -0.0000    -0.0000     0.0000
 imaginary and real dielectric function
