Numerical source excerpts: parameter lines, convergence and completion footer.

 vasp.5.4.4.18Apr17-6-g9f103f2a35 (build Sep 13 2026 16:50:19) complex          
   k-points           NKPTS =     49   k-points in BZ     NKDIM =     49   number of bands    NBANDS=     60
   LSORBIT =      T    spin-orbit coupling
   NELECT =      18.0000    total number of electrons
   LDIPOL =      F    correct potential (dipole corrections)
   IDIPOL =      0    1-x, 2-y, 3-z, 4-all directions 
------------------------ aborting loop because EDIFF is reached ----------------------------------------

General timing and accounting informations for this job:
 ========================================================
  
                  Total CPU time used (sec):     1701.381
                            User time (sec):     1696.047
                          System time (sec):        5.334
                         Elapsed time (sec):     1704.773
  
                   Maximum memory used (kb):  1566683136.
                   Average memory used (kb):           0.
  
                          Minor page faults:       383502
                          Major page faults:           58
                 Voluntary context switches:           92
