SYSTEM = MoS2 same-density canonical vs PAW operator comparison
ISTART = 1
ICHARG = 11
PREC = Normal
ENCUT = 400
EDIFF = 1e-08
NELM = 200
NBANDS = 60
ALGO = Normal
LREAL = .FALSE.
LASPH = .FALSE.
ISMEAR = 0
SIGMA = 0.02
ISYM = -1
LSORBIT = .TRUE.
SAXIS = 0 0 1
MAGMOM = 0 0 0 0 0 0 0 0 0
GGA_COMPAT = .FALSE.
LMAXMIX = 2
NSW = 0
IBRION = -1
LWAVE = .TRUE.
LCHARG = .FALSE.
LVTOT = .FALSE.
NELMIN = 8

ISPIN = 1

LOPTICS = .TRUE.

LNABLA = .FALSE.

LPEAD = .FALSE.

LBERRY_EXPORT = .TRUE.

LSPIN_EXPORT = .TRUE.
