    6    6    1    1
  0.3484631E+02  0.3171634E-09  0.3171634E-09  0.2400000E-08  0.5000000E-15
  1.000000000000000E-004
  CAR 
 MoS2 3r-bilayer fixed-geometry PBE SOC  
     36     49     64
 
  0.0000000E+00  0.0000000E+00  0.0000000E+00  0.2040816E-01
    1      -14.348519   1.000000
    2      -14.348519   1.000000
    3      -14.173035   1.000000
    4      -14.173035   1.000000
    5      -13.256419   1.000000
    6      -13.256419   1.000000
    7      -13.012220   1.000000
    8      -13.012220   1.000000
    9       -6.095725   1.000000
   10       -6.095725   1.000000
   11       -5.534537   1.000000
   12       -5.534537   1.000000
   13       -2.718357   1.000000
   14       -2.718357   1.000000
   15       -2.673563   1.000000
   16       -2.673563   1.000000
   17       -2.655365   1.000000
   18       -2.655365   1.000000
   19       -2.626412   1.000000
   20       -2.626412   1.000000
   21       -2.577360   1.000000
   22       -2.577360   1.000000
   23       -1.652620   1.000000
   24       -1.652620   1.000000
   25       -1.593233   1.000000
   26       -1.593233   1.000000
   27       -1.564022   1.000000
   28       -1.564022   1.000000
   29       -1.547288   1.000000
   30       -1.547288   1.000000
   31       -1.498765   1.000000
   32       -1.498765   1.000000
   33       -0.570280   1.000000
   34       -0.570280   1.000000
   35        0.125709   1.000000
   36        0.125709   1.000000
   37        2.451756   0.000000
   38        2.451756   0.000000
   39        2.521133   0.000000
   40        2.521133   0.000000
   41        2.532246   0.000000
   42        2.532246   0.000000
   43        2.599778   0.000000
   44        2.599778   0.000000
   45        2.664155   0.000000
   46        2.664155   0.000000
   47        2.682744   0.000000
   48        2.682744   0.000000
   49        2.747661   0.000000
   50        2.747661   0.000000
   51        2.755356   0.000000
   52        2.755356   0.000000
   53        5.157063   0.000000
   54        5.157063   0.000000
   55        5.304318   0.000000
   56        5.304318   0.000000
   57        6.134469   0.000000
   58        6.134469   0.000000
   59        6.400152   0.000000
   60        6.400152   0.000000
   61        6.607859   0.000000
   62        6.607859   0.000000
   63        7.794776   0.000000
   64        7.794776   0.000000
 
  0.0000000E+00  0.4166667E-01  0.0000000E+00  0.2040816E-01
    1      -14.323616   1.000000
    2      -14.323545   1.000000
    3      -14.148374   1.000000
    4      -14.148266   1.000000
    5      -13.242744   1.000000
    6      -13.242734   1.000000
    7      -13.000190   1.000000
    8      -13.000156   1.000000
    9       -6.065786   1.000000
   10       -6.065783   1.000000
   11       -5.504645   1.000000
   12       -5.504633   1.000000
   13       -2.760157   1.000000
   14       -2.758014   1.000000
   15       -2.721315   1.000000
   16       -2.715517   1.000000
   17       -2.692314   1.000000
   18       -2.688556   1.000000
   19       -2.637994   1.000000
   20       -2.636744   1.000000
   21       -2.578541   1.000000
   22       -2.577503   1.000000
   23       -1.865913   1.000000
   24       -1.861010   1.000000
   25       -1.657457   1.000000
   26       -1.651905   1.000000
   27       -1.598882   1.000000
   28       -1.598320   1.000000
   29       -1.520849   1.000000
   30       -1.519497   1.000000
   31       -1.327280   1.000000
   32       -1.325331   1.000000
   33       -0.572357   1.000000
   34       -0.571128   1.000000
   35        0.095133   1.000000
   36        0.095578   1.000000
   37        2.437691   0.000000
   38        2.442641   0.000000
   39        2.497764   0.000000
   40        2.514460   0.000000
   41        2.527589   0.000000
   42        2.537007   0.000000
   43        2.589384   0.000000
   44        2.592430   0.000000
   45        2.614553   0.000000
   46        2.622030   0.000000
   47        2.651388   0.000000
   48        2.657917   0.000000
   49        2.683342   0.000000
   50        2.690153   0.000000
   51        2.729009   0.000000
   52        2.731514   0.000000
   53        5.199646   0.000000
   54        5.199868   0.000000
   55        5.347137   0.000000
   56        5.347606   0.000000
   57        6.225237   0.000000
   58        6.225421   0.000000
   59        6.516401   0.000000
   60        6.516983   0.000000
   61        6.676388   0.000000
   62        6.676934   0.000000
   63        7.829421   0.000000
   64        7.829459   0.000000
 
  0.0000000E+00  0.8333333E-01  0.0000000E+00  0.2040816E-01
    1      -14.249640   1.000000
    2      -14.249496   1.000000
    3      -14.075184   1.000000
    4      -14.074964   1.000000
    5      -13.202205   1.000000
    6      -13.202184   1.000000
    7      -12.964531   1.000000
    8      -12.964465   1.000000
    9       -5.978613   1.000000
   10       -5.978604   1.000000
   11       -5.418032   1.000000
   12       -5.418010   1.000000
   13       -2.927703   1.000000
   14       -2.921992   1.000000
   15       -2.887231   1.000000
   16       -2.868288   1.000000
   17       -2.856736   1.000000
   18       -2.843624   1.000000
   19       -2.572337   1.000000
   20       -2.571840   1.000000
   21       -2.509802   1.000000
   22       -2.509079   1.000000
   23       -2.175698   1.000000
   24       -2.174386   1.000000
   25       -1.773737   1.000000
   26       -1.772839   1.000000
   27       -1.708379   1.000000
   28       -1.708279   1.000000
   29       -1.486764   1.000000
   30       -1.485028   1.000000
   31       -1.164584   1.000000
   32       -1.164466   1.000000
   33       -0.584281   1.000000
   34       -0.581991   1.000000
   35       -0.003220   1.000000
   36       -0.002102   1.000000
   37        2.352683   0.000000
   38        2.354285   0.000000
   39        2.399617   0.000000
   40        2.401425   0.000000
   41        2.430652   0.000000
   42        2.434024   0.000000
   43        2.500855   0.000000
   44        2.506205   0.000000
   45        2.512129   0.000000
   46        2.516266   0.000000
   47        2.628651   0.000000
   48        2.631526   0.000000
   49        2.689313   0.000000
   50        2.691693   0.000000
   51        2.774047   0.000000
   52        2.777034   0.000000
   53        5.317161   0.000000
   54        5.317506   0.000000
   55        5.465485   0.000000
   56        5.466192   0.000000
   57        6.432991   0.000000
   58        6.433303   0.000000
   59        6.837032   0.000000
   60        6.838547   0.000000
   61        6.917739   0.000000
   62        6.919250   0.000000
   63        7.933608   0.000000
   64        7.933693   0.000000
 
  0.0000000E+00  0.1250000E+00  0.0000000E+00  0.2040816E-01
    1      -14.129073   1.000000
    2      -14.128852   1.000000
    3      -13.956080   1.000000
    4      -13.955739   1.000000
    5      -13.136239   1.000000
    6      -13.136204   1.000000
    7      -12.906651   1.000000
    8      -12.906551   1.000000
    9       -5.842815   1.000000
   10       -5.842796   1.000000
   11       -5.284938   1.000000
   12       -5.284910   1.000000
   13       -3.180278   1.000000
   14       -3.174169   1.000000
   15       -3.131045   1.000000
   16       -3.112404   1.000000
   17       -3.086637   1.000000
   18       -3.073981   1.000000
   19       -2.515069   1.000000
   20       -2.514911   1.000000
   21       -2.445010   1.000000
   22       -2.444728   1.000000
   23       -2.380788   1.000000
   24       -2.380674   1.000000
   25       -1.950912   1.000000
   26       -1.950836   1.000000
   27       -1.883221   1.000000
   28       -1.882954   1.000000
   29       -1.475221   1.000000
   30       -1.474541   1.000000
   31       -1.097886   1.000000
   32       -1.097520   1.000000
   33       -0.624964   1.000000
   34       -0.622144   1.000000
   35       -0.179388   1.000000
   36       -0.177242   1.000000
   37        2.117641   0.000000
   38        2.120072   0.000000
   39        2.236490   0.000000
   40        2.248512   0.000000
   41        2.309629   0.000000
   42        2.336717   0.000000
   43        2.397365   0.000000
   44        2.397762   0.000000
   45        2.442290   0.000000
   46        2.455973   0.000000
   47        2.525513   0.000000
   48        2.527232   0.000000
   49        2.845709   0.000000
   50        2.846993   0.000000
   51        2.943623   0.000000
   52        2.945110   0.000000
   53        5.496157   0.000000
   54        5.496498   0.000000
   55        5.643839   0.000000
   56        5.644548   0.000000
   57        6.660243   0.000000
   58        6.660592   0.000000
   59        7.285477   0.000000
   60        7.286907   0.000000
   61        7.343306   0.000000
   62        7.344786   0.000000
   63        8.113007   0.000000
   64        8.113172   0.000000
 
  0.0000000E+00  0.1666667E+00  0.0000000E+00  0.2040816E-01
    1      -13.966134   1.000000
    2      -13.965828   1.000000
    3      -13.795602   1.000000
    4      -13.795127   1.000000
    5      -13.047393   1.000000
    6      -13.047339   1.000000
    7      -12.829032   1.000000
    8      -12.828899   1.000000
    9       -5.675407   1.000000
   10       -5.675375   1.000000
   11       -5.126973   1.000000
   12       -5.126931   1.000000
   13       -3.478618   1.000000
   14       -3.472617   1.000000
   15       -3.425366   1.000000
   16       -3.412001   1.000000
   17       -3.335684   1.000000
   18       -3.327889   1.000000
   19       -2.860122   1.000000
   20       -2.859616   1.000000
   21       -2.285437   1.000000
   22       -2.282572   1.000000
   23       -2.222000   1.000000
   24       -2.217062   1.000000
   25       -2.155736   1.000000
   26       -2.155163   1.000000
   27       -2.089553   1.000000
   28       -2.087969   1.000000
   29       -1.531232   1.000000
   30       -1.531180   1.000000
   31       -1.136151   1.000000
   32       -1.135863   1.000000
   33       -0.716781   1.000000
   34       -0.713938   1.000000
   35       -0.423755   1.000000
   36       -0.420244   1.000000
   37        1.867680   0.000000
   38        1.870830   0.000000
   39        2.106997   0.000000
   40        2.110073   0.000000
   41        2.249487   0.000000
   42        2.251775   0.000000
   43        2.307563   0.000000
   44        2.322114   0.000000
   45        2.386293   0.000000
   46        2.386619   0.000000
   47        2.521722   0.000000
   48        2.531642   0.000000
   49        3.034907   0.000000
   50        3.035616   0.000000
   51        3.146697   0.000000
   52        3.147560   0.000000
   53        5.731285   0.000000
   54        5.731558   0.000000
   55        5.874322   0.000000
   56        5.874934   0.000000
   57        6.905452   0.000000
   58        6.905787   0.000000
   59        7.743000   0.000000
   60        7.743352   0.000000
   61        7.795603   0.000000
   62        7.796212   0.000000
   63        8.390059   0.000000
   64        8.390348   0.000000
 
  0.0000000E+00  0.2083333E+00  0.0000000E+00  0.2040816E-01
    1      -13.767001   1.000000
    2      -13.766598   1.000000
    3      -13.600300   1.000000
    4      -13.599670   1.000000
    5      -12.939357   1.000000
    6      -12.939279   1.000000
    7      -12.735270   1.000000
    8      -12.735103   1.000000
    9       -5.506794   1.000000
   10       -5.506762   1.000000
   11       -4.987393   1.000000
   12       -4.987269   1.000000
   13       -3.780321   1.000000
   14       -3.771696   1.000000
   15       -3.727523   1.000000
   16       -3.711184   1.000000
   17       -3.595802   1.000000
   18       -3.587321   1.000000
   19       -3.216654   1.000000
   20       -3.215501   1.000000
   21       -2.388400   1.000000
   22       -2.387187   1.000000
   23       -2.316086   1.000000
   24       -2.314584   1.000000
   25       -2.080982   1.000000
   26       -2.080023   1.000000
   27       -2.012855   1.000000
   28       -2.011737   1.000000
   29       -1.655512   1.000000
   30       -1.655202   1.000000
   31       -1.260925   1.000000
   32       -1.259450   1.000000
   33       -0.868700   1.000000
   34       -0.865718   1.000000
   35       -0.696795   1.000000
   36       -0.691680   1.000000
   37        1.703553   0.000000
   38        1.707092   0.000000
   39        2.035776   0.000000
   40        2.036898   0.000000
   41        2.123951   0.000000
   42        2.124314   0.000000
   43        2.253967   0.000000
   44        2.254875   0.000000
   45        2.392320   0.000000
   46        2.402195   0.000000
   47        2.681799   0.000000
   48        2.689485   0.000000
   49        3.222464   0.000000
   50        3.222884   0.000000
   51        3.352199   0.000000
   52        3.352739   0.000000
   53        6.019009   0.000000
   54        6.019210   0.000000
   55        6.151534   0.000000
   56        6.152054   0.000000
   57        7.183002   0.000000
   58        7.183377   0.000000
   59        8.022149   0.000000
   60        8.022512   0.000000
   61        8.085337   0.000000
   62        8.086368   0.000000
   63        8.703693   0.000000
   64        8.704121   0.000000
 
  0.0000000E+00  0.2500000E+00  0.0000000E+00  0.2040816E-01
    1      -13.540136   1.000000
    2      -13.539622   1.000000
    3      -13.379160   1.000000
    4      -13.378347   1.000000
    5      -12.817211   1.000000
    6      -12.817101   1.000000
    7      -12.630281   1.000000
    8      -12.630074   1.000000
    9       -5.387330   1.000000
   10       -5.387297   1.000000
   11       -4.944431   1.000000
   12       -4.944061   1.000000
   13       -4.051594   1.000000
   14       -4.040545   1.000000
   15       -3.974551   1.000000
   16       -3.950993   1.000000
   17       -3.841159   1.000000
   18       -3.827644   1.000000
   19       -3.567600   1.000000
   20       -3.565927   1.000000
   21       -2.602532   1.000000
   22       -2.602049   1.000000
   23       -2.528646   1.000000
   24       -2.528071   1.000000
   25       -1.883652   1.000000
   26       -1.881762   1.000000
   27       -1.818884   1.000000
   28       -1.816726   1.000000
   29       -1.794035   1.000000
   30       -1.790409   1.000000
   31       -1.431553   1.000000
   32       -1.429024   1.000000
   33       -1.055602   1.000000
   34       -1.052751   1.000000
   35       -0.939861   1.000000
   36       -0.933940   1.000000
   37        1.653509   0.000000
   38        1.657262   0.000000
   39        1.993350   0.000000
   40        1.993837   0.000000
   41        2.055299   0.000000
   42        2.058124   0.000000
   43        2.141015   0.000000
   44        2.141844   0.000000
   45        2.564093   0.000000
   46        2.569953   0.000000
   47        2.899126   0.000000
   48        2.904207   0.000000
   49        3.389844   0.000000
   50        3.390130   0.000000
   51        3.540501   0.000000
   52        3.540866   0.000000
   53        6.352102   0.000000
   54        6.352275   0.000000
   55        6.466232   0.000000
   56        6.466756   0.000000
   57        7.484550   0.000000
   58        7.485232   0.000000
   59        8.001191   0.000000
   60        8.003594   0.000000
   61        8.144052   0.000000
   62        8.144104   0.000000
   63        8.688614   0.000000
   64        8.696551   0.000000
 
  0.0000000E+00  0.2916667E+00  0.0000000E+00  0.2040816E-01
    1      -13.296794   1.000000
    2      -13.296151   1.000000
    3      -13.143960   1.000000
    4      -13.142929   1.000000
    5      -12.687616   1.000000
    6      -12.687467   1.000000
    7      -12.520464   1.000000
    8      -12.520209   1.000000
    9       -5.377915   1.000000
   10       -5.377724   1.000000
   11       -5.062574   1.000000
   12       -5.062037   1.000000
   13       -4.299982   1.000000
   14       -4.295468   1.000000
   15       -4.132905   1.000000
   16       -4.123631   1.000000
   17       -4.019447   1.000000
   18       -4.018475   1.000000
   19       -3.854703   1.000000
   20       -3.851638   1.000000
   21       -2.799748   1.000000
   22       -2.799474   1.000000
   23       -2.724663   1.000000
   24       -2.724327   1.000000
   25       -1.994943   1.000000
   26       -1.993471   1.000000
   27       -1.668542   1.000000
   28       -1.666437   1.000000
   29       -1.631812   1.000000
   30       -1.627271   1.000000
   31       -1.564521   1.000000
   32       -1.563531   1.000000
   33       -1.209024   1.000000
   34       -1.206949   1.000000
   35       -1.102139   1.000000
   36       -1.097245   1.000000
   37        1.705850   0.000000
   38        1.709662   0.000000
   39        1.928146   0.000000
   40        1.929984   0.000000
   41        2.047832   0.000000
   42        2.050334   0.000000
   43        2.113907   0.000000
   44        2.116807   0.000000
   45        2.784302   0.000000
   46        2.787134   0.000000
   47        3.134300   0.000000
   48        3.136748   0.000000
   49        3.527560   0.000000
   50        3.527809   0.000000
   51        3.700225   0.000000
   52        3.700495   0.000000
   53        6.713167   0.000000
   54        6.713602   0.000000
   55        6.797581   0.000000
   56        6.798712   0.000000
   57        7.665980   0.000000
   58        7.667630   0.000000
   59        7.776981   0.000000
   60        7.780232   0.000000
   61        8.065356   0.000000
   62        8.068905   0.000000
   63        8.347977   0.000000
   64        8.368002   0.000000
 
  0.0000000E+00  0.3333333E+00  0.0000000E+00  0.2040816E-01
    1      -13.051471   1.000000
    2      -13.050685   1.000000
    3      -12.909714   1.000000
    4      -12.908430   1.000000
    5      -12.558867   1.000000
    6      -12.558682   1.000000
    7      -12.413530   1.000000
    8      -12.413204   1.000000
    9       -5.492476   1.000000
   10       -5.492177   1.000000
   11       -5.287903   1.000000
   12       -5.287425   1.000000
   13       -4.550428   1.000000
   14       -4.550008   1.000000
   15       -4.346034   1.000000
   16       -4.337110   1.000000
   17       -4.168294   1.000000
   18       -4.151311   1.000000
   19       -3.963010   1.000000
   20       -3.955120   1.000000
   21       -2.970376   1.000000
   22       -2.970201   1.000000
   23       -2.894330   1.000000
   24       -2.894101   1.000000
   25       -2.140639   1.000000
   26       -2.139295   1.000000
   27       -1.778979   1.000000
   28       -1.777777   1.000000
   29       -1.483258   1.000000
   30       -1.481221   1.000000
   31       -1.393745   1.000000
   32       -1.390924   1.000000
   33       -1.263333   1.000000
   34       -1.262335   1.000000
   35       -1.149145   1.000000
   36       -1.146667   1.000000
   37        1.826482   0.000000
   38        1.828667   0.000000
   39        1.903340   0.000000
   40        1.908193   0.000000
   41        2.009931   0.000000
   42        2.012686   0.000000
   43        2.203533   0.000000
   44        2.207353   0.000000
   45        3.014160   0.000000
   46        3.014310   0.000000
   47        3.353292   0.000000
   48        3.353879   0.000000
   49        3.633202   0.000000
   50        3.633481   0.000000
   51        3.826766   0.000000
   52        3.826975   0.000000
   53        7.050961   0.000000
   54        7.054201   0.000000
   55        7.064092   0.000000
   56        7.072666   0.000000
   57        7.244856   0.000000
   58        7.247483   0.000000
   59        7.705857   0.000000
   60        7.709780   0.000000
   61        8.018292   0.000000
   62        8.035387   0.000000
   63        8.218728   0.000000
   64        8.231871   0.000000
 
  0.0000000E+00  0.3750000E+00  0.0000000E+00  0.2040816E-01
    1      -12.822493   1.000000
    2      -12.821572   1.000000
    3      -12.694823   1.000000
    4      -12.693291   1.000000
    5      -12.440912   1.000000
    6      -12.440724   1.000000
    7      -12.318286   1.000000
    8      -12.317851   1.000000
    9       -5.672871   1.000000
   10       -5.672577   1.000000
   11       -5.530755   1.000000
   12       -5.530366   1.000000
   13       -4.786772   1.000000
   14       -4.784752   1.000000
   15       -4.606106   1.000000
   16       -4.600089   1.000000
   17       -4.235643   1.000000
   18       -4.225713   1.000000
   19       -4.020099   1.000000
   20       -4.014667   1.000000
   21       -3.108249   1.000000
   22       -3.108131   1.000000
   23       -3.031463   1.000000
   24       -3.031295   1.000000
   25       -2.252099   1.000000
   26       -2.250829   1.000000
   27       -1.905120   1.000000
   28       -1.904714   1.000000
   29       -1.339560   1.000000
   30       -1.336292   1.000000
   31       -1.258032   1.000000
   32       -1.254922   1.000000
   33       -1.194309   1.000000
   34       -1.192530   1.000000
   35       -1.084807   1.000000
   36       -1.084459   1.000000
   37        1.900684   0.000000
   38        1.901987   0.000000
   39        1.971269   0.000000
   40        1.977974   0.000000
   41        2.044735   0.000000
   42        2.045180   0.000000
   43        2.317459   0.000000
   44        2.321523   0.000000
   45        3.216776   0.000000
   46        3.219507   0.000000
   47        3.528258   0.000000
   48        3.532539   0.000000
   49        3.709075   0.000000
   50        3.709438   0.000000
   51        3.920255   0.000000
   52        3.920405   0.000000
   53        6.685035   0.000000
   54        6.688746   0.000000
   55        7.034100   0.000000
   56        7.040822   0.000000
   57        7.330770   0.000000
   58        7.345571   0.000000
   59        7.655863   0.000000
   60        7.658174   0.000000
   61        7.850690   0.000000
   62        7.855136   0.000000
   63        8.057378   0.000000
   64        8.071047   0.000000
 
  0.0000000E+00  0.4166667E+00  0.0000000E+00  0.2040816E-01
    1      -12.631560   1.000000
    2      -12.630605   1.000000
    3      -12.519960   1.000000
    4      -12.518354   1.000000
    5      -12.344952   1.000000
    6      -12.344863   1.000000
    7      -12.243541   1.000000
    8      -12.242972   1.000000
    9       -5.851056   1.000000
   10       -5.850825   1.000000
   11       -5.736655   1.000000
   12       -5.736361   1.000000
   13       -4.977171   1.000000
   14       -4.975115   1.000000
   15       -4.817620   1.000000
   16       -4.813680   1.000000
   17       -4.295550   1.000000
   18       -4.290153   1.000000
   19       -4.084043   1.000000
   20       -4.080921   1.000000
   21       -3.209302   1.000000
   22       -3.209226   1.000000
   23       -3.131990   1.000000
   24       -3.131874   1.000000
   25       -2.326478   1.000000
   26       -2.325468   1.000000
   27       -1.995329   1.000000
   28       -1.995281   1.000000
   29       -1.232142   1.000000
   30       -1.229398   1.000000
   31       -1.143212   1.000000
   32       -1.140925   1.000000
   33       -1.078137   1.000000
   34       -1.076092   1.000000
   35       -0.970291   1.000000
   36       -0.969265   1.000000
   37        1.937736   0.000000
   38        1.937834   0.000000
   39        2.011696   0.000000
   40        2.012595   0.000000
   41        2.206668   0.000000
   42        2.211210   0.000000
   43        2.432491   0.000000
   44        2.436673   0.000000
   45        3.368872   0.000000
   46        3.374246   0.000000
   47        3.648357   0.000000
   48        3.655869   0.000000
   49        3.759874   0.000000
   50        3.760413   0.000000
   51        3.983385   0.000000
   52        3.983471   0.000000
   53        6.223652   0.000000
   54        6.227187   0.000000
   55        6.636251   0.000000
   56        6.637035   0.000000
   57        7.433491   0.000000
   58        7.469582   0.000000
   59        7.693438   0.000000
   60        7.702674   0.000000
   61        7.774403   0.000000
   62        7.809484   0.000000
   63        8.121952   0.000000
   64        8.137534   0.000000
 
  0.0000000E+00  0.4583333E+00  0.0000000E+00  0.2040816E-01
    1      -12.502227   1.000000
    2      -12.501538   1.000000
    3      -12.405020   1.000000
    4      -12.403886   1.000000
    5      -12.282243   1.000000
    6      -12.282159   1.000000
    7      -12.196139   1.000000
    8      -12.195607   1.000000
    9       -5.978435   1.000000
   10       -5.978307   1.000000
   11       -5.873244   1.000000
   12       -5.873081   1.000000
   13       -5.100292   1.000000
   14       -5.099057   1.000000
   15       -4.952519   1.000000
   16       -4.950507   1.000000
   17       -4.342880   1.000000
   18       -4.340508   1.000000
   19       -4.136207   1.000000
   20       -4.134824   1.000000
   21       -3.270894   1.000000
   22       -3.270856   1.000000
   23       -3.193262   1.000000
   24       -3.193202   1.000000
   25       -2.367694   1.000000
   26       -2.367136   1.000000
   27       -2.049329   1.000000
   28       -2.049206   1.000000
   29       -1.166771   1.000000
   30       -1.165619   1.000000
   31       -1.054326   1.000000
   32       -1.053346   1.000000
   33       -0.978593   1.000000
   34       -0.977680   1.000000
   35       -0.873351   1.000000
   36       -0.872794   1.000000
   37        1.971823   0.000000
   38        1.971932   0.000000
   39        2.040401   0.000000
   40        2.040528   0.000000
   41        2.360953   0.000000
   42        2.365225   0.000000
   43        2.518314   0.000000
   44        2.521947   0.000000
   45        3.459773   0.000000
   46        3.464889   0.000000
   47        3.714688   0.000000
   48        3.721249   0.000000
   49        3.790048   0.000000
   50        3.790782   0.000000
   51        4.019542   0.000000
   52        4.019576   0.000000
   53        5.897686   0.000000
   54        5.900509   0.000000
   55        6.284870   0.000000
   56        6.286945   0.000000
   57        7.430442   0.000000
   58        7.457802   0.000000
   59        7.699117   0.000000
   60        7.714810   0.000000
   61        7.841962   0.000000
   62        7.866910   0.000000
   63        8.237235   0.000000
   64        8.259408   0.000000
 
  0.0000000E+00  0.5000000E+00  0.0000000E+00  0.2040816E-01
    1      -12.455627   1.000000
    2      -12.455627   1.000000
    3      -12.364452   1.000000
    4      -12.364452   1.000000
    5      -12.260592   1.000000
    6      -12.260592   1.000000
    7      -12.179686   1.000000
    8      -12.179686   1.000000
    9       -6.024444   1.000000
   10       -6.024444   1.000000
   11       -5.921023   1.000000
   12       -5.921023   1.000000
   13       -5.142473   1.000000
   14       -5.142473   1.000000
   15       -4.998139   1.000000
   16       -4.998139   1.000000
   17       -4.360292   1.000000
   18       -4.360292   1.000000
   19       -4.155743   1.000000
   20       -4.155743   1.000000
   21       -3.291579   1.000000
   22       -3.291579   1.000000
   23       -3.213829   1.000000
   24       -3.213829   1.000000
   25       -2.380566   1.000000
   26       -2.380566   1.000000
   27       -2.067213   1.000000
   28       -2.067213   1.000000
   29       -1.145210   1.000000
   30       -1.145210   1.000000
   31       -1.025027   1.000000
   32       -1.025027   1.000000
   33       -0.932796   1.000000
   34       -0.932796   1.000000
   35       -0.837842   1.000000
   36       -0.837842   1.000000
   37        1.985754   0.000000
   38        1.985754   0.000000
   39        2.052527   0.000000
   40        2.052527   0.000000
   41        2.430645   0.000000
   42        2.430645   0.000000
   43        2.548542   0.000000
   44        2.548542   0.000000
   45        3.491525   0.000000
   46        3.491525   0.000000
   47        3.737623   0.000000
   48        3.737623   0.000000
   49        3.800799   0.000000
   50        3.800799   0.000000
   51        4.031286   0.000000
   52        4.031286   0.000000
   53        5.781467   0.000000
   54        5.781467   0.000000
   55        6.149027   0.000000
   56        6.149027   0.000000
   57        7.426909   0.000000
   58        7.426909   0.000000
   59        7.744574   0.000000
   60        7.744574   0.000000
   61        7.868320   0.000000
   62        7.868321   0.000000
   63        8.280399   0.000000
   64        8.280567   0.000000
 
  0.2777778E-01  0.5138889E+00  0.0000000E+00  0.2040816E-01
    1      -12.453600   1.000000
    2      -12.449928   1.000000
    3      -12.362763   1.000000
    4      -12.358939   1.000000
    5      -12.258183   1.000000
    6      -12.257455   1.000000
    7      -12.177419   1.000000
    8      -12.176924   1.000000
    9       -6.014766   1.000000
   10       -6.011874   1.000000
   11       -5.911381   1.000000
   12       -5.908368   1.000000
   13       -5.147064   1.000000
   14       -5.145719   1.000000
   15       -5.005562   1.000000
   16       -5.003926   1.000000
   17       -4.357445   1.000000
   18       -4.355762   1.000000
   19       -4.152644   1.000000
   20       -4.151243   1.000000
   21       -3.300156   1.000000
   22       -3.297465   1.000000
   23       -3.223870   1.000000
   24       -3.222456   1.000000
   25       -2.376089   1.000000
   26       -2.370195   1.000000
   27       -2.068004   1.000000
   28       -2.065632   1.000000
   29       -1.275030   1.000000
   30       -1.219774   1.000000
   31       -1.172949   1.000000
   32       -1.104083   1.000000
   33       -0.899178   1.000000
   34       -0.819950   1.000000
   35       -0.808711   1.000000
   36       -0.739726   1.000000
   37        1.982226   0.000000
   38        1.997548   0.000000
   39        2.045047   0.000000
   40        2.061435   0.000000
   41        2.417914   0.000000
   42        2.454785   0.000000
   43        2.535143   0.000000
   44        2.570815   0.000000
   45        3.499875   0.000000
   46        3.512691   0.000000
   47        3.713358   0.000000
   48        3.753725   0.000000
   49        3.765315   0.000000
   50        3.802943   0.000000
   51        3.991783   0.000000
   52        4.001095   0.000000
   53        5.792026   0.000000
   54        5.795545   0.000000
   55        6.162510   0.000000
   56        6.168700   0.000000
   57        7.486608   0.000000
   58        7.490759   0.000000
   59        7.800154   0.000000
   60        7.806796   0.000000
   61        7.903876   0.000000
   62        7.911237   0.000000
   63        8.311106   0.000000
   64        8.315941   0.000000
 
  0.5555556E-01  0.5277778E+00  0.0000000E+00  0.2040816E-01
    1      -12.443965   1.000000
    2      -12.436668   1.000000
    3      -12.353979   1.000000
    4      -12.346392   1.000000
    5      -12.250350   1.000000
    6      -12.248895   1.000000
    7      -12.170255   1.000000
    8      -12.169271   1.000000
    9       -5.983020   1.000000
   10       -5.977250   1.000000
   11       -5.879600   1.000000
   12       -5.873585   1.000000
   13       -5.159866   1.000000
   14       -5.157178   1.000000
   15       -5.026207   1.000000
   16       -5.023002   1.000000
   17       -4.347439   1.000000
   18       -4.344135   1.000000
   19       -4.142186   1.000000
   20       -4.139440   1.000000
   21       -3.321560   1.000000
   22       -3.316704   1.000000
   23       -3.248533   1.000000
   24       -3.244539   1.000000
   25       -2.359574   1.000000
   26       -2.348725   1.000000
   27       -2.069366   1.000000
   28       -2.064779   1.000000
   29       -1.488252   1.000000
   30       -1.428200   1.000000
   31       -1.374365   1.000000
   32       -1.308174   1.000000
   33       -0.811850   1.000000
   34       -0.723503   1.000000
   35       -0.722684   1.000000
   36       -0.638042   1.000000
   37        1.982604   0.000000
   38        2.013564   0.000000
   39        2.038642   0.000000
   40        2.069933   0.000000
   41        2.418470   0.000000
   42        2.490057   0.000000
   43        2.532812   0.000000
   44        2.603094   0.000000
   45        3.526853   0.000000
   46        3.547056   0.000000
   47        3.646692   0.000000
   48        3.668597   0.000000
   49        3.795370   0.000000
   50        3.812465   0.000000
   51        3.907680   0.000000
   52        3.920326   0.000000
   53        5.826174   0.000000
   54        5.833107   0.000000
   55        6.207048   0.000000
   56        6.219291   0.000000
   57        7.661415   0.000000
   58        7.668444   0.000000
   59        7.962490   0.000000
   60        7.975460   0.000000
   61        8.016623   0.000000
   62        8.029924   0.000000
   63        8.405550   0.000000
   64        8.414488   0.000000
 
  0.8333333E-01  0.5416667E+00  0.0000000E+00  0.2040816E-01
    1      -12.427189   1.000000
    2      -12.416361   1.000000
    3      -12.338575   1.000000
    4      -12.327345   1.000000
    5      -12.237502   1.000000
    6      -12.235322   1.000000
    7      -12.158578   1.000000
    8      -12.157119   1.000000
    9       -5.929771   1.000000
   10       -5.921154   1.000000
   11       -5.826192   1.000000
   12       -5.817193   1.000000
   13       -5.181853   1.000000
   14       -5.177849   1.000000
   15       -5.060003   1.000000
   16       -5.055382   1.000000
   17       -4.330977   1.000000
   18       -4.326189   1.000000
   19       -4.125199   1.000000
   20       -4.121229   1.000000
   21       -3.351517   1.000000
   22       -3.345164   1.000000
   23       -3.277436   1.000000
   24       -3.269361   1.000000
   25       -2.339093   1.000000
   26       -2.324213   1.000000
   27       -2.075565   1.000000
   28       -2.068287   1.000000
   29       -1.745385   1.000000
   30       -1.687943   1.000000
   31       -1.612883   1.000000
   32       -1.551361   1.000000
   33       -0.743834   1.000000
   34       -0.651953   1.000000
   35       -0.648666   1.000000
   36       -0.558372   1.000000
   37        1.977227   0.000000
   38        2.021141   0.000000
   39        2.030735   0.000000
   40        2.073959   0.000000
   41        2.435749   0.000000
   42        2.536883   0.000000
   43        2.547752   0.000000
   44        2.648393   0.000000
   45        3.469000   0.000000
   46        3.473987   0.000000
   47        3.603777   0.000000
   48        3.655326   0.000000
   49        3.732342   0.000000
   50        3.773957   0.000000
   51        3.908454   0.000000
   52        3.925668   0.000000
   53        5.881175   0.000000
   54        5.891444   0.000000
   55        6.276968   0.000000
   56        6.295121   0.000000
   57        7.929830   0.000000
   58        7.937287   0.000000
   59        8.180381   0.000000
   60        8.197381   0.000000
   61        8.224311   0.000000
   62        8.234644   0.000000
   63        8.560422   0.000000
   64        8.567249   0.000000
 
  0.1111111E+00  0.5555556E+00  0.0000000E+00  0.2040816E-01
    1      -12.404018   1.000000
    2      -12.389799   1.000000
    3      -12.317320   1.000000
    4      -12.302628   1.000000
    5      -12.220274   1.000000
    6      -12.217375   1.000000
    7      -12.142998   1.000000
    8      -12.141084   1.000000
    9       -5.855957   1.000000
   10       -5.844553   1.000000
   11       -5.751964   1.000000
   12       -5.740006   1.000000
   13       -5.214022   1.000000
   14       -5.208778   1.000000
   15       -5.106238   1.000000
   16       -5.100444   1.000000
   17       -4.309118   1.000000
   18       -4.303069   1.000000
   19       -4.102952   1.000000
   20       -4.097946   1.000000
   21       -3.383012   1.000000
   22       -3.374861   1.000000
   23       -3.300427   1.000000
   24       -3.287492   1.000000
   25       -2.327825   1.000000
   26       -2.306147   1.000000
   27       -2.097968   1.000000
   28       -2.081159   1.000000
   29       -2.027616   1.000000
   30       -1.974521   1.000000
   31       -1.877867   1.000000
   32       -1.820840   1.000000
   33       -0.690638   1.000000
   34       -0.597012   1.000000
   35       -0.589920   1.000000
   36       -0.496767   1.000000
   37        1.957876   0.000000
   38        2.007529   0.000000
   39        2.015134   0.000000
   40        2.065326   0.000000
   41        2.472958   0.000000
   42        2.585998   0.000000
   43        2.596615   0.000000
   44        2.709595   0.000000
   45        3.311001   0.000000
   46        3.326351   0.000000
   47        3.511375   0.000000
   48        3.517476   0.000000
   49        3.790950   0.000000
   50        3.804957   0.000000
   51        3.984877   0.000000
   52        4.015966   0.000000
   53        5.954050   0.000000
   54        5.967758   0.000000
   55        6.365590   0.000000
   56        6.389678   0.000000
   57        8.261570   0.000000
   58        8.266347   0.000000
   59        8.412379   0.000000
   60        8.430461   0.000000
   61        8.492148   0.000000
   62        8.501954   0.000000
   63        8.768830   0.000000
   64        8.777453   0.000000
 
  0.1388889E+00  0.5694444E+00  0.0000000E+00  0.2040816E-01
    1      -12.375542   1.000000
    2      -12.358120   1.000000
    3      -12.291319   1.000000
    4      -12.273414   1.000000
    5      -12.199594   1.000000
    6      -12.195989   1.000000
    7      -12.124383   1.000000
    8      -12.122039   1.000000
    9       -5.763052   1.000000
   10       -5.748982   1.000000
   11       -5.658098   1.000000
   12       -5.643209   1.000000
   13       -5.256615   1.000000
   14       -5.250279   1.000000
   15       -5.162979   1.000000
   16       -5.156344   1.000000
   17       -4.283338   1.000000
   18       -4.276355   1.000000
   19       -4.077159   1.000000
   20       -4.071378   1.000000
   21       -3.407636   1.000000
   22       -3.396574   1.000000
   23       -3.311642   1.000000
   24       -3.293798   1.000000
   25       -2.398204   1.000000
   26       -2.337147   1.000000
   27       -2.298487   1.000000
   28       -2.234839   1.000000
   29       -2.185866   1.000000
   30       -2.133994   1.000000
   31       -2.100708   1.000000
   32       -2.057964   1.000000
   33       -0.644449   1.000000
   34       -0.551524   1.000000
   35       -0.538355   1.000000
   36       -0.445267   1.000000
   37        1.921716   0.000000
   38        1.970231   0.000000
   39        1.984040   0.000000
   40        2.034161   0.000000
   41        2.528848   0.000000
   42        2.650090   0.000000
   43        2.665589   0.000000
   44        2.786624   0.000000
   45        3.147175   0.000000
   46        3.168876   0.000000
   47        3.341729   0.000000
   48        3.352865   0.000000
   49        3.894236   0.000000
   50        3.927116   0.000000
   51        4.082131   0.000000
   52        4.124153   0.000000
   53        6.041967   0.000000
   54        6.059511   0.000000
   55        6.466987   0.000000
   56        6.497401   0.000000
   57        8.567506   0.000000
   58        8.591696   0.000000
   59        8.681025   0.000000
   60        8.687998   0.000000
   61        8.703111   0.000000
   62        8.717174   0.000000
   63        8.945110   0.000000
   64        9.022392   0.000000
 
  0.1666667E+00  0.5833333E+00  0.0000000E+00  0.2040816E-01
    1      -12.343163   1.000000
    2      -12.322766   1.000000
    3      -12.261964   1.000000
    4      -12.241156   1.000000
    5      -12.176624   1.000000
    6      -12.172348   1.000000
    7      -12.103799   1.000000
    8      -12.101056   1.000000
    9       -5.653459   1.000000
   10       -5.637064   1.000000
   11       -5.546162   1.000000
   12       -5.528356   1.000000
   13       -5.308150   1.000000
   14       -5.300898   1.000000
   15       -5.226449   1.000000
   16       -5.219402   1.000000
   17       -4.255458   1.000000
   18       -4.247968   1.000000
   19       -4.049948   1.000000
   20       -4.043695   1.000000
   21       -3.419066   1.000000
   22       -3.404151   1.000000
   23       -3.309067   1.000000
   24       -3.286415   1.000000
   25       -2.679747   1.000000
   26       -2.635960   1.000000
   27       -2.497049   1.000000
   28       -2.452324   1.000000
   29       -2.281592   1.000000
   30       -2.263602   1.000000
   31       -2.136793   1.000000
   32       -2.126528   1.000000
   33       -0.598438   1.000000
   34       -0.508250   1.000000
   35       -0.486798   1.000000
   36       -0.396121   1.000000
   37        1.869137   0.000000
   38        1.912042   0.000000
   39        1.934527   0.000000
   40        1.978710   0.000000
   41        2.594513   0.000000
   42        2.725590   0.000000
   43        2.741092   0.000000
   44        2.873285   0.000000
   45        2.997463   0.000000
   46        3.024348   0.000000
   47        3.181757   0.000000
   48        3.203344   0.000000
   49        4.016362   0.000000
   50        4.061065   0.000000
   51        4.186026   0.000000
   52        4.237517   0.000000
   53        6.142154   0.000000
   54        6.164276   0.000000
   55        6.576779   0.000000
   56        6.614479   0.000000
   57        8.493804   0.000000
   58        8.568727   0.000000
   59        8.853033   0.000000
   60        8.861326   0.000000
   61        8.885208   0.000000
   62        8.902111   0.000000
   63        9.151394   0.000000
   64        9.236688   0.000000
 
  0.1944444E+00  0.5972222E+00  0.0000000E+00  0.2040816E-01
    1      -12.308641   1.000000
    2      -12.285541   1.000000
    3      -12.230972   1.000000
    4      -12.207632   1.000000
    5      -12.152782   1.000000
    6      -12.147904   1.000000
    7      -12.082498   1.000000
    8      -12.079387   1.000000
    9       -5.533242   1.000000
   10       -5.516265   1.000000
   11       -5.418644   1.000000
   12       -5.397799   1.000000
   13       -5.363577   1.000000
   14       -5.355438   1.000000
   15       -5.289081   1.000000
   16       -5.282396   1.000000
   17       -4.227952   1.000000
   18       -4.220419   1.000000
   19       -4.024356   1.000000
   20       -4.017823   1.000000
   21       -3.416483   1.000000
   22       -3.396810   1.000000
   23       -3.295274   1.000000
   24       -3.267636   1.000000
   25       -2.986263   1.000000
   26       -2.950312   1.000000
   27       -2.789972   1.000000
   28       -2.751093   1.000000
   29       -2.306731   1.000000
   30       -2.297532   1.000000
   31       -2.184177   1.000000
   32       -2.178919   1.000000
   33       -0.548069   1.000000
   34       -0.461906   1.000000
   35       -0.430418   1.000000
   36       -0.343658   1.000000
   37        1.802656   0.000000
   38        1.837577   0.000000
   39        1.868745   0.000000
   40        1.904164   0.000000
   41        2.649131   0.000000
   42        2.765541   0.000000
   43        2.823044   0.000000
   44        2.874120   0.000000
   45        2.903849   0.000000
   46        2.954904   0.000000
   47        3.070156   0.000000
   48        3.114001   0.000000
   49        4.140765   0.000000
   50        4.194653   0.000000
   51        4.286717   0.000000
   52        4.346529   0.000000
   53        6.250989   0.000000
   54        6.278826   0.000000
   55        6.691720   0.000000
   56        6.738464   0.000000
   57        8.196929   0.000000
   58        8.268436   0.000000
   59        8.865918   0.000000
   60        8.910499   0.000000
   61        9.065702   0.000000
   62        9.085731   0.000000
   63        9.254758   0.000000
   64        9.266682   0.000000
 
  0.2222222E+00  0.6111111E+00  0.0000000E+00  0.2040816E-01
    1      -12.274044   1.000000
    2      -12.248552   1.000000
    3      -12.200307   1.000000
    4      -12.174843   1.000000
    5      -12.129698   1.000000
    6      -12.124362   1.000000
    7      -12.061879   1.000000
    8      -12.058426   1.000000
    9       -5.454467   1.000000
   10       -5.446491   1.000000
   11       -5.402498   1.000000
   12       -5.390883   1.000000
   13       -5.315332   1.000000
   14       -5.305016   1.000000
   15       -5.273981   1.000000
   16       -5.251497   1.000000
   17       -4.204824   1.000000
   18       -4.197416   1.000000
   19       -4.006455   1.000000
   20       -3.998845   1.000000
   21       -3.420289   1.000000
   22       -3.390885   1.000000
   23       -3.316376   1.000000
   24       -3.286366   1.000000
   25       -3.218590   1.000000
   26       -3.194385   1.000000
   27       -3.065357   1.000000
   28       -3.038691   1.000000
   29       -2.345267   1.000000
   30       -2.343422   1.000000
   31       -2.239566   1.000000
   32       -2.234220   1.000000
   33       -0.491895   1.000000
   34       -0.410275   1.000000
   35       -0.367580   1.000000
   36       -0.285417   1.000000
   37        1.727046   0.000000
   38        1.752847   0.000000
   39        1.792327   0.000000
   40        1.818122   0.000000
   41        2.655685   0.000000
   42        2.727255   0.000000
   43        2.778128   0.000000
   44        2.808088   0.000000
   45        2.898754   0.000000
   46        3.013823   0.000000
   47        3.055770   0.000000
   48        3.140441   0.000000
   49        4.257133   0.000000
   50        4.318684   0.000000
   51        4.375719   0.000000
   52        4.442719   0.000000
   53        6.362430   0.000000
   54        6.397648   0.000000
   55        6.808255   0.000000
   56        6.866945   0.000000
   57        7.903651   0.000000
   58        7.962734   0.000000
   59        8.630943   0.000000
   60        8.710219   0.000000
   61        9.175659   0.000000
   62        9.190848   0.000000
   63        9.315895   0.000000
   64        9.336299   0.000000
 
  0.2500000E+00  0.6250000E+00  0.0000000E+00  0.2040816E-01
    1      -12.241807   1.000000
    2      -12.214276   1.000000
    3      -12.172156   1.000000
    4      -12.144963   1.000000
    5      -12.109112   1.000000
    6      -12.103584   1.000000
    7      -12.043376   1.000000
    8      -12.039600   1.000000
    9       -5.494286   1.000000
   10       -5.486853   1.000000
   11       -5.439031   1.000000
   12       -5.431217   1.000000
   13       -5.208209   1.000000
   14       -5.183415   1.000000
   15       -5.124104   1.000000
   16       -5.098103   1.000000
   17       -4.193933   1.000000
   18       -4.185033   1.000000
   19       -4.014207   1.000000
   20       -4.000357   1.000000
   21       -3.585616   1.000000
   22       -3.559260   1.000000
   23       -3.421998   1.000000
   24       -3.385122   1.000000
   25       -3.274123   1.000000
   26       -3.245234   1.000000
   27       -3.204284   1.000000
   28       -3.163717   1.000000
   29       -2.405111   1.000000
   30       -2.398758   1.000000
   31       -2.296586   1.000000
   32       -2.288955   1.000000
   33       -0.432283   1.000000
   34       -0.355037   1.000000
   35       -0.300735   1.000000
   36       -0.223113   1.000000
   37        1.649584   0.000000
   38        1.665954   0.000000
   39        1.713435   0.000000
   40        1.729684   0.000000
   41        2.618594   0.000000
   42        2.663800   0.000000
   43        2.698677   0.000000
   44        2.725666   0.000000
   45        2.971140   0.000000
   46        3.084460   0.000000
   47        3.114007   0.000000
   48        3.214201   0.000000
   49        4.357350   0.000000
   50        4.425248   0.000000
   51        4.446354   0.000000
   52        4.519236   0.000000
   53        6.466389   0.000000
   54        6.511441   0.000000
   55        6.920640   0.000000
   56        6.995752   0.000000
   57        7.658887   0.000000
   58        7.699859   0.000000
   59        8.321047   0.000000
   60        8.396625   0.000000
   61        9.279843   0.000000
   62        9.288118   0.000000
   63        9.452894   0.000000
   64        9.465454   0.000000
 
  0.2777778E+00  0.6388889E+00  0.0000000E+00  0.2040816E-01
    1      -12.214747   1.000000
    2      -12.185586   1.000000
    3      -12.148904   1.000000
    4      -12.120289   1.000000
    5      -12.092789   1.000000
    6      -12.087489   1.000000
    7      -12.028474   1.000000
    8      -12.024395   1.000000
    9       -5.538665   1.000000
   10       -5.531430   1.000000
   11       -5.483594   1.000000
   12       -5.475900   1.000000
   13       -5.062674   1.000000
   14       -5.034175   1.000000
   15       -4.971503   1.000000
   16       -4.942421   1.000000
   17       -4.209834   1.000000
   18       -4.194405   1.000000
   19       -4.094342   1.000000
   20       -4.066356   1.000000
   21       -3.737488   1.000000
   22       -3.732633   1.000000
   23       -3.593657   1.000000
   24       -3.571519   1.000000
   25       -3.265733   1.000000
   26       -3.235397   1.000000
   27       -3.175449   1.000000
   28       -3.131610   1.000000
   29       -2.471974   1.000000
   30       -2.457717   1.000000
   31       -2.350068   1.000000
   32       -2.338822   1.000000
   33       -0.375945   1.000000
   34       -0.302257   1.000000
   35       -0.237218   1.000000
   36       -0.163366   1.000000
   37        1.580079   0.000000
   38        1.587700   0.000000
   39        1.642463   0.000000
   40        1.650058   0.000000
   41        2.581088   0.000000
   42        2.611725   0.000000
   43        2.643309   0.000000
   44        2.662654   0.000000
   45        3.046056   0.000000
   46        3.147460   0.000000
   47        3.187342   0.000000
   48        3.278577   0.000000
   49        4.434968   0.000000
   50        4.494338   0.000000
   51        4.507901   0.000000
   52        4.571592   0.000000
   53        6.546189   0.000000
   54        6.604081   0.000000
   55        7.017461   0.000000
   56        7.113523   0.000000
   57        7.498216   0.000000
   58        7.515357   0.000000
   59        8.029185   0.000000
   60        8.094837   0.000000
   61        9.383116   0.000000
   62        9.389433   0.000000
   63        9.546985   0.000000
   64        9.558295   0.000000
 
  0.3055556E+00  0.6527778E+00  0.0000000E+00  0.2040816E-01
    1      -12.196017   1.000000
    2      -12.165750   1.000000
    3      -12.133048   1.000000
    4      -12.103244   1.000000
    5      -12.082240   1.000000
    6      -12.077603   1.000000
    7      -12.018598   1.000000
    8      -12.014278   1.000000
    9       -5.569205   1.000000
   10       -5.562116   1.000000
   11       -5.514386   1.000000
   12       -5.506822   1.000000
   13       -4.929759   1.000000
   14       -4.898249   1.000000
   15       -4.837875   1.000000
   16       -4.805436   1.000000
   17       -4.262410   1.000000
   18       -4.237384   1.000000
   19       -4.237201   1.000000
   20       -4.206415   1.000000
   21       -3.784634   1.000000
   22       -3.781081   1.000000
   23       -3.716027   1.000000
   24       -3.710551   1.000000
   25       -3.226818   1.000000
   26       -3.192040   1.000000
   27       -3.154769   1.000000
   28       -3.107894   1.000000
   29       -2.525342   1.000000
   30       -2.505105   1.000000
   31       -2.392537   1.000000
   32       -2.377260   1.000000
   33       -0.333510   1.000000
   34       -0.262008   1.000000
   35       -0.189089   1.000000
   36       -0.117582   1.000000
   37        1.530367   0.000000
   38        1.531589   0.000000
   39        1.591552   0.000000
   40        1.592843   0.000000
   41        2.559273   0.000000
   42        2.577363   0.000000
   43        2.616275   0.000000
   44        2.624652   0.000000
   45        3.107852   0.000000
   46        3.183733   0.000000
   47        3.251291   0.000000
   48        3.315362   0.000000
   49        4.485258   0.000000
   50        4.519023   0.000000
   51        4.561569   0.000000
   52        4.598710   0.000000
   53        6.584154   0.000000
   54        6.654743   0.000000
   55        7.085910   0.000000
   56        7.196464   0.000000
   57        7.440376   0.000000
   58        7.443571   0.000000
   59        7.800577   0.000000
   60        7.852063   0.000000
   61        9.466138   0.000000
   62        9.470849   0.000000
   63        9.593462   0.000000
   64        9.606868   0.000000
 
  0.3333333E+00  0.6666667E+00  0.0000000E+00  0.2040816E-01
    1      -12.189024   1.000000
    2      -12.158347   1.000000
    3      -12.127190   1.000000
    4      -12.096797   1.000000
    5      -12.078541   1.000000
    6      -12.074389   1.000000
    7      -12.015050   1.000000
    8      -12.010631   1.000000
    9       -5.580273   1.000000
   10       -5.573244   1.000000
   11       -5.525525   1.000000
   12       -5.518020   1.000000
   13       -4.865759   1.000000
   14       -4.832299   1.000000
   15       -4.778708   1.000000
   16       -4.744200   1.000000
   17       -4.308805   1.000000
   18       -4.306263   1.000000
   19       -4.283365   1.000000
   20       -4.274540   1.000000
   21       -3.788269   1.000000
   22       -3.787265   1.000000
   23       -3.754334   1.000000
   24       -3.752174   1.000000
   25       -3.204244   1.000000
   26       -3.169884   1.000000
   27       -3.149281   1.000000
   28       -3.103985   1.000000
   29       -2.545860   1.000000
   30       -2.523493   1.000000
   31       -2.410308   1.000000
   32       -2.392994   1.000000
   33       -0.317069   1.000000
   34       -0.246217   1.000000
   35       -0.170393   1.000000
   36       -0.099576   1.000000
   37        1.510578   0.000000
   38        1.512180   0.000000
   39        1.571267   0.000000
   40        1.572750   0.000000
   41        2.552816   0.000000
   42        2.565877   0.000000
   43        2.610032   0.000000
   44        2.611707   0.000000
   45        3.135394   0.000000
   46        3.192485   0.000000
   47        3.281804   0.000000
   48        3.322535   0.000000
   49        4.503400   0.000000
   50        4.525070   0.000000
   51        4.581058   0.000000
   52        4.605405   0.000000
   53        6.588631   0.000000
   54        6.664068   0.000000
   55        7.116804   0.000000
   56        7.232164   0.000000
   57        7.432323   0.000000
   58        7.434315   0.000000
   59        7.710703   0.000000
   60        7.751550   0.000000
   61        9.498290   0.000000
   62        9.502506   0.000000
   63        9.608161   0.000000
   64        9.623118   0.000000
 
  0.3055556E+00  0.6111111E+00  0.0000000E+00  0.2040816E-01
    1      -12.222383   1.000000
    2      -12.193352   1.000000
    3      -12.154871   1.000000
    4      -12.126393   1.000000
    5      -12.095364   1.000000
    6      -12.089688   1.000000
    7      -12.030714   1.000000
    8      -12.026655   1.000000
    9       -5.530681   1.000000
   10       -5.523347   1.000000
   11       -5.475620   1.000000
   12       -5.467776   1.000000
   13       -5.054948   1.000000
   14       -5.030448   1.000000
   15       -4.935059   1.000000
   16       -4.906083   1.000000
   17       -4.136839   1.000000
   18       -4.108176   1.000000
   19       -4.102479   1.000000
   20       -4.078690   1.000000
   21       -3.742542   1.000000
   22       -3.728466   1.000000
   23       -3.688959   1.000000
   24       -3.678070   1.000000
   25       -3.295723   1.000000
   26       -3.264969   1.000000
   27       -3.166127   1.000000
   28       -3.121097   1.000000
   29       -2.465584   1.000000
   30       -2.449206   1.000000
   31       -2.328016   1.000000
   32       -2.318866   1.000000
   33       -0.388709   1.000000
   34       -0.317077   1.000000
   35       -0.250474   1.000000
   36       -0.178972   1.000000
   37        1.581349   0.000000
   38        1.587379   0.000000
   39        1.651197   0.000000
   40        1.658667   0.000000
   41        2.573528   0.000000
   42        2.596091   0.000000
   43        2.633454   0.000000
   44        2.638759   0.000000
   45        3.023978   0.000000
   46        3.145304   0.000000
   47        3.162733   0.000000
   48        3.279829   0.000000
   49        4.449667   0.000000
   50        4.496681   0.000000
   51        4.521527   0.000000
   52        4.574940   0.000000
   53        6.640211   0.000000
   54        6.706245   0.000000
   55        7.011070   0.000000
   56        7.088647   0.000000
   57        7.577994   0.000000
   58        7.609696   0.000000
   59        7.887334   0.000000
   60        7.949209   0.000000
   61        9.409736   0.000000
   62        9.412867   0.000000
   63        9.485667   0.000000
   64        9.494479   0.000000
 
  0.2777778E+00  0.5555556E+00  0.0000000E+00  0.2040816E-01
    1      -12.329343   1.000000
    2      -12.304142   1.000000
    3      -12.245455   1.000000
    4      -12.219701   1.000000
    5      -12.152386   1.000000
    6      -12.146828   1.000000
    7      -12.078659   1.000000
    8      -12.075167   1.000000
    9       -5.382279   1.000000
   10       -5.374933   1.000000
   11       -5.323556   1.000000
   12       -5.315012   1.000000
   13       -5.252450   1.000000
   14       -5.241682   1.000000
   15       -5.127560   1.000000
   16       -5.109300   1.000000
   17       -3.941636   1.000000
   18       -3.925801   1.000000
   19       -3.905617   1.000000
   20       -3.891387   1.000000
   21       -3.557822   1.000000
   22       -3.505120   1.000000
   23       -3.486285   1.000000
   24       -3.452492   1.000000
   25       -3.413510   1.000000
   26       -3.378499   1.000000
   27       -3.240040   1.000000
   28       -3.203192   1.000000
   29       -2.264878   1.000000
   30       -2.259354   1.000000
   31       -2.136596   1.000000
   32       -2.130413   1.000000
   33       -0.569279   1.000000
   34       -0.497468   1.000000
   35       -0.446589   1.000000
   36       -0.375004   1.000000
   37        1.705139   0.000000
   38        1.714977   0.000000
   39        1.840150   0.000000
   40        1.863006   0.000000
   41        2.572913   0.000000
   42        2.636767   0.000000
   43        2.657814   0.000000
   44        2.694491   0.000000
   45        2.813685   0.000000
   46        2.921979   0.000000
   47        2.975076   0.000000
   48        3.083100   0.000000
   49        4.339023   0.000000
   50        4.394854   0.000000
   51        4.412821   0.000000
   52        4.481828   0.000000
   53        6.840244   0.000000
   54        6.895359   0.000000
   55        7.017727   0.000000
   56        7.063750   0.000000
   57        7.889866   0.000000
   58        7.939111   0.000000
   59        8.140403   0.000000
   60        8.211945   0.000000
   61        9.123225   0.000000
   62        9.130400   0.000000
   63        9.199935   0.000000
   64        9.211536   0.000000
 
  0.2500000E+00  0.5000000E+00  0.0000000E+00  0.2040816E-01
    1      -12.508435   1.000000
    2      -12.488009   1.000000
    3      -12.403636   1.000000
    4      -12.382011   1.000000
    5      -12.251352   1.000000
    6      -12.247208   1.000000
    7      -12.157846   1.000000
    8      -12.154908   1.000000
    9       -5.377766   1.000000
   10       -5.376939   1.000000
   11       -5.219780   1.000000
   12       -5.213066   1.000000
   13       -5.089609   1.000000
   14       -5.079685   1.000000
   15       -5.043544   1.000000
   16       -5.032566   1.000000
   17       -3.939666   1.000000
   18       -3.925325   1.000000
   19       -3.829926   1.000000
   20       -3.819859   1.000000
   21       -3.567811   1.000000
   22       -3.550213   1.000000
   23       -3.323623   1.000000
   24       -3.300660   1.000000
   25       -3.155457   1.000000
   26       -3.116659   1.000000
   27       -3.076463   1.000000
   28       -3.036272   1.000000
   29       -2.020653   1.000000
   30       -2.012945   1.000000
   31       -1.910995   1.000000
   32       -1.897861   1.000000
   33       -0.777233   1.000000
   34       -0.700488   1.000000
   35       -0.667003   1.000000
   36       -0.590200   1.000000
   37        1.706489   0.000000
   38        1.724129   0.000000
   39        2.017833   0.000000
   40        2.038952   0.000000
   41        2.468248   0.000000
   42        2.542173   0.000000
   43        2.572671   0.000000
   44        2.668954   0.000000
   45        2.688258   0.000000
   46        2.706620   0.000000
   47        2.845597   0.000000
   48        2.881082   0.000000
   49        4.226278   0.000000
   50        4.256442   0.000000
   51        4.298442   0.000000
   52        4.350343   0.000000
   53        7.114368   0.000000
   54        7.159726   0.000000
   55        7.299398   0.000000
   56        7.317309   0.000000
   57        8.105491   0.000000
   58        8.141777   0.000000
   59        8.221941   0.000000
   60        8.264008   0.000000
   61        8.826847   0.000000
   62        8.849273   0.000000
   63        8.963406   0.000000
   64        9.002114   0.000000
 
  0.2222222E+00  0.4444444E+00  0.0000000E+00  0.2040816E-01
    1      -12.746588   1.000000
    2      -12.731240   1.000000
    3      -12.621834   1.000000
    4      -12.605334   1.000000
    5      -12.382701   1.000000
    6      -12.379834   1.000000
    7      -12.264078   1.000000
    8      -12.261791   1.000000
    9       -5.370049   1.000000
   10       -5.360331   1.000000
   11       -5.178071   1.000000
   12       -5.175127   1.000000
   13       -4.733712   1.000000
   14       -4.719106   1.000000
   15       -4.686909   1.000000
   16       -4.672546   1.000000
   17       -3.994616   1.000000
   18       -3.979827   1.000000
   19       -3.837001   1.000000
   20       -3.825193   1.000000
   21       -3.627256   1.000000
   22       -3.609941   1.000000
   23       -3.355618   1.000000
   24       -3.333369   1.000000
   25       -2.771577   1.000000
   26       -2.719558   1.000000
   27       -2.686816   1.000000
   28       -2.633720   1.000000
   29       -1.781502   1.000000
   30       -1.763821   1.000000
   31       -1.678996   1.000000
   32       -1.661936   1.000000
   33       -0.949603   1.000000
   34       -0.863368   1.000000
   35       -0.847991   1.000000
   36       -0.762113   1.000000
   37        1.544928   0.000000
   38        1.597690   0.000000
   39        2.003453   0.000000
   40        2.048392   0.000000
   41        2.342397   0.000000
   42        2.371227   0.000000
   43        2.399398   0.000000
   44        2.437820   0.000000
   45        2.605745   0.000000
   46        2.630415   0.000000
   47        2.824081   0.000000
   48        2.827532   0.000000
   49        4.129221   0.000000
   50        4.130103   0.000000
   51        4.181229   0.000000
   52        4.206265   0.000000
   53        7.460500   0.000000
   54        7.483909   0.000000
   55        7.608481   0.000000
   56        7.626970   0.000000
   57        7.817274   0.000000
   58        7.822085   0.000000
   59        7.963562   0.000000
   60        8.001933   0.000000
   61        8.833838   0.000000
   62        8.841271   0.000000
   63        8.990689   0.000000
   64        9.005395   0.000000
 
  0.1944444E+00  0.3888889E+00  0.0000000E+00  0.2040816E-01
    1      -13.022609   1.000000
    2      -13.011950   1.000000
    3      -12.881342   1.000000
    4      -12.869800   1.000000
    5      -12.533557   1.000000
    6      -12.531668   1.000000
    7      -12.388906   1.000000
    8      -12.387271   1.000000
    9       -5.305792   1.000000
   10       -5.290233   1.000000
   11       -5.052645   1.000000
   12       -5.041875   1.000000
   13       -4.336569   1.000000
   14       -4.318030   1.000000
   15       -4.271984   1.000000
   16       -4.255023   1.000000
   17       -4.014253   1.000000
   18       -4.005400   1.000000
   19       -3.880135   1.000000
   20       -3.868464   1.000000
   21       -3.625466   1.000000
   22       -3.604021   1.000000
   23       -3.331724   1.000000
   24       -3.308086   1.000000
   25       -2.416918   1.000000
   26       -2.353929   1.000000
   27       -2.330469   1.000000
   28       -2.267212   1.000000
   29       -1.582815   1.000000
   30       -1.552808   1.000000
   31       -1.455976   1.000000
   32       -1.434308   1.000000
   33       -1.059103   1.000000
   34       -0.976312   1.000000
   35       -0.965070   1.000000
   36       -0.884369   1.000000
   37        1.403331   0.000000
   38        1.464404   0.000000
   39        1.808047   0.000000
   40        1.894902   0.000000
   41        2.254766   0.000000
   42        2.264228   0.000000
   43        2.283852   0.000000
   44        2.300108   0.000000
   45        2.475628   0.000000
   46        2.522577   0.000000
   47        2.750322   0.000000
   48        2.777246   0.000000
   49        3.991839   0.000000
   50        4.013246   0.000000
   51        4.052084   0.000000
   52        4.059194   0.000000
   53        7.236220   0.000000
   54        7.245564   0.000000
   55        7.322495   0.000000
   56        7.329605   0.000000
   57        7.880667   0.000000
   58        7.905408   0.000000
   59        8.268956   0.000000
   60        8.288891   0.000000
   61        8.424540   0.000000
   62        8.427865   0.000000
   63        9.015760   0.000000
   64        9.042237   0.000000
 
  0.1666667E+00  0.3333333E+00  0.0000000E+00  0.2040816E-01
    1      -13.312413   1.000000
    2      -13.305590   1.000000
    3      -13.158660   1.000000
    4      -13.151236   1.000000
    5      -12.691161   1.000000
    6      -12.689989   1.000000
    7      -12.521838   1.000000
    8      -12.520763   1.000000
    9       -5.279714   1.000000
   10       -5.265161   1.000000
   11       -4.909990   1.000000
   12       -4.896198   1.000000
   13       -4.107888   1.000000
   14       -4.105963   1.000000
   15       -3.993279   1.000000
   16       -3.992608   1.000000
   17       -3.858541   1.000000
   18       -3.842121   1.000000
   19       -3.716085   1.000000
   20       -3.694261   1.000000
   21       -3.444434   1.000000
   22       -3.424609   1.000000
   23       -3.222767   1.000000
   24       -3.193792   1.000000
   25       -2.161911   1.000000
   26       -2.094278   1.000000
   27       -2.080736   1.000000
   28       -2.014008   1.000000
   29       -1.445270   1.000000
   30       -1.405085   1.000000
   31       -1.260997   1.000000
   32       -1.231162   1.000000
   33       -1.079145   1.000000
   34       -1.021736   1.000000
   35       -0.998097   1.000000
   36       -0.942297   1.000000
   37        1.391340   0.000000
   38        1.438739   0.000000
   39        1.724166   0.000000
   40        1.802962   0.000000
   41        2.163839   0.000000
   42        2.166798   0.000000
   43        2.179135   0.000000
   44        2.221485   0.000000
   45        2.341899   0.000000
   46        2.402920   0.000000
   47        2.642519   0.000000
   48        2.689049   0.000000
   49        3.803912   0.000000
   50        3.839855   0.000000
   51        3.861907   0.000000
   52        3.893752   0.000000
   53        6.745167   0.000000
   54        6.749374   0.000000
   55        6.852184   0.000000
   56        6.856126   0.000000
   57        7.923010   0.000000
   58        7.927122   0.000000
   59        8.267325   0.000000
   60        8.284017   0.000000
   61        8.571753   0.000000
   62        8.595461   0.000000
   63        9.040929   0.000000
   64        9.058016   0.000000
 
  0.1388889E+00  0.2777778E+00  0.0000000E+00  0.2040816E-01
    1      -13.593489   1.000000
    2      -13.589512   1.000000
    3      -13.430940   1.000000
    4      -13.426592   1.000000
    5      -12.843941   1.000000
    6      -12.843271   1.000000
    7      -12.652600   1.000000
    8      -12.651953   1.000000
    9       -5.374230   1.000000
   10       -5.365587   1.000000
   11       -4.886318   1.000000
   12       -4.877148   1.000000
   13       -3.927820   1.000000
   14       -3.923187   1.000000
   15       -3.871213   1.000000
   16       -3.867107   1.000000
   17       -3.646713   1.000000
   18       -3.636255   1.000000
   19       -3.298395   1.000000
   20       -3.267341   1.000000
   21       -3.035152   1.000000
   22       -3.027259   1.000000
   23       -2.957019   1.000000
   24       -2.931971   1.000000
   25       -2.102425   1.000000
   26       -2.050381   1.000000
   27       -2.030196   1.000000
   28       -1.979129   1.000000
   29       -1.374848   1.000000
   30       -1.334319   1.000000
   31       -1.120340   1.000000
   32       -1.090459   1.000000
   33       -0.959394   1.000000
   34       -0.924192   1.000000
   35       -0.876695   1.000000
   36       -0.832173   1.000000
   37        1.509383   0.000000
   38        1.531821   0.000000
   39        1.799156   0.000000
   40        1.856147   0.000000
   41        2.113815   0.000000
   42        2.136965   0.000000
   43        2.146727   0.000000
   44        2.172030   0.000000
   45        2.247514   0.000000
   46        2.313632   0.000000
   47        2.529785   0.000000
   48        2.586946   0.000000
   49        3.553746   0.000000
   50        3.599193   0.000000
   51        3.617319   0.000000
   52        3.662275   0.000000
   53        6.295945   0.000000
   54        6.298167   0.000000
   55        6.423137   0.000000
   56        6.425497   0.000000
   57        7.477469   0.000000
   58        7.479995   0.000000
   59        8.424059   0.000000
   60        8.436596   0.000000
   61        8.561234   0.000000
   62        8.574124   0.000000
   63        8.898856   0.000000
   64        8.907018   0.000000
 
  0.1111111E+00  0.2222222E+00  0.0000000E+00  0.2040816E-01
    1      -13.847114   1.000000
    2      -13.845062   1.000000
    3      -13.678732   1.000000
    4      -13.676468   1.000000
    5      -12.982093   1.000000
    6      -12.981752   1.000000
    7      -12.772109   1.000000
    8      -12.771756   1.000000
    9       -5.560870   1.000000
   10       -5.556934   1.000000
   11       -5.020968   1.000000
   12       -5.017147   1.000000
   13       -3.647029   1.000000
   14       -3.638427   1.000000
   15       -3.589827   1.000000
   16       -3.581134   1.000000
   17       -3.426454   1.000000
   18       -3.422322   1.000000
   19       -2.952965   1.000000
   20       -2.938421   1.000000
   21       -2.580583   1.000000
   22       -2.579506   1.000000
   23       -2.512796   1.000000
   24       -2.511625   1.000000
   25       -2.218232   1.000000
   26       -2.186098   1.000000
   27       -2.151036   1.000000
   28       -2.119474   1.000000
   29       -1.363512   1.000000
   30       -1.326705   1.000000
   31       -1.043539   1.000000
   32       -1.015970   1.000000
   33       -0.787224   1.000000
   34       -0.772638   1.000000
   35       -0.584583   1.000000
   36       -0.563345   1.000000
   37        1.717715   0.000000
   38        1.718749   0.000000
   39        1.971498   0.000000
   40        1.991008   0.000000
   41        2.126658   0.000000
   42        2.170863   0.000000
   43        2.202533   0.000000
   44        2.228867   0.000000
   45        2.265623   0.000000
   46        2.301299   0.000000
   47        2.448036   0.000000
   48        2.505391   0.000000
   49        3.259369   0.000000
   50        3.310408   0.000000
   51        3.332895   0.000000
   52        3.382392   0.000000
   53        5.911712   0.000000
   54        5.912960   0.000000
   55        6.052104   0.000000
   56        6.053553   0.000000
   57        7.095911   0.000000
   58        7.097530   0.000000
   59        8.111764   0.000000
   60        8.112603   0.000000
   61        8.170385   0.000000
   62        8.170895   0.000000
   63        8.627771   0.000000
   64        8.628456   0.000000
 
  0.8333333E-01  0.1666667E+00  0.0000000E+00  0.2040816E-01
    1      -14.058634   1.000000
    2      -14.057746   1.000000
    3      -13.886617   1.000000
    4      -13.885611   1.000000
    5      -13.097614   1.000000
    6      -13.097469   1.000000
    7      -12.872817   1.000000
    8      -12.872640   1.000000
    9       -5.766676   1.000000
   10       -5.765191   1.000000
   11       -5.210900   1.000000
   12       -5.209566   1.000000
   13       -3.309912   1.000000
   14       -3.301235   1.000000
   15       -3.251870   1.000000
   16       -3.242164   1.000000
   17       -3.179218   1.000000
   18       -3.173717   1.000000
   19       -2.619597   1.000000
   20       -2.617516   1.000000
   21       -2.393859   1.000000
   22       -2.371579   1.000000
   23       -2.330716   1.000000
   24       -2.307703   1.000000
   25       -2.165068   1.000000
   26       -2.157565   1.000000
   27       -2.099805   1.000000
   28       -2.091089   1.000000
   29       -1.397774   1.000000
   30       -1.366569   1.000000
   31       -1.040600   1.000000
   32       -1.018084   1.000000
   33       -0.655260   1.000000
   34       -0.650379   1.000000
   35       -0.281221   1.000000
   36       -0.273854   1.000000
   37        1.988199   0.000000
   38        2.001144   0.000000
   39        2.137084   0.000000
   40        2.169233   0.000000
   41        2.223214   0.000000
   42        2.249592   0.000000
   43        2.328372   0.000000
   44        2.340087   0.000000
   45        2.374282   0.000000
   46        2.388655   0.000000
   47        2.469160   0.000000
   48        2.498579   0.000000
   49        2.962748   0.000000
   50        3.014020   0.000000
   51        3.047189   0.000000
   52        3.094678   0.000000
   53        5.600830   0.000000
   54        5.601577   0.000000
   55        5.747845   0.000000
   56        5.748846   0.000000
   57        6.777624   0.000000
   58        6.778740   0.000000
   59        7.540877   0.000000
   60        7.543731   0.000000
   61        7.596443   0.000000
   62        7.598928   0.000000
   63        8.225038   0.000000
   64        8.225912   0.000000
 
  0.5555556E-01  0.1111111E+00  0.0000000E+00  0.2040816E-01
    1      -14.217214   1.000000
    2      -14.216912   1.000000
    3      -14.043117   1.000000
    4      -14.042743   1.000000
    5      -13.184421   1.000000
    6      -13.184373   1.000000
    7      -12.948899   1.000000
    8      -12.948812   1.000000
    9       -5.941254   1.000000
   10       -5.940846   1.000000
   11       -5.381046   1.000000
   12       -5.380693   1.000000
   13       -2.996817   1.000000
   14       -2.991349   1.000000
   15       -2.950417   1.000000
   16       -2.933328   1.000000
   17       -2.925894   1.000000
   18       -2.907175   1.000000
   19       -2.545900   1.000000
   20       -2.534246   1.000000
   21       -2.482672   1.000000
   22       -2.472937   1.000000
   23       -2.264920   1.000000
   24       -2.260887   1.000000
   25       -1.857170   1.000000
   26       -1.845124   1.000000
   27       -1.791603   1.000000
   28       -1.780193   1.000000
   29       -1.461459   1.000000
   30       -1.438977   1.000000
   31       -1.122992   1.000000
   32       -1.108945   1.000000
   33       -0.592037   1.000000
   34       -0.589298   1.000000
   35       -0.048285   1.000000
   36       -0.046422   1.000000
   37        2.295430   0.000000
   38        2.300466   0.000000
   39        2.318137   0.000000
   40        2.350724   0.000000
   41        2.376252   0.000000
   42        2.396877   0.000000
   43        2.437809   0.000000
   44        2.453237   0.000000
   45        2.491451   0.000000
   46        2.511382   0.000000
   47        2.590819   0.000000
   48        2.613943   0.000000
   49        2.719567   0.000000
   50        2.761888   0.000000
   51        2.808587   0.000000
   52        2.847934   0.000000
   53        5.366690   0.000000
   54        5.367166   0.000000
   55        5.515233   0.000000
   56        5.516035   0.000000
   57        6.504177   0.000000
   58        6.504975   0.000000
   59        6.969182   0.000000
   60        6.971398   0.000000
   61        7.036478   0.000000
   62        7.038575   0.000000
   63        7.980172   0.000000
   64        7.980397   0.000000
 
  0.2777778E-01  0.5555556E-01  0.0000000E+00  0.2040816E-01
    1      -14.315341   1.000000
    2      -14.315254   1.000000
    3      -14.140185   1.000000
    4      -14.140055   1.000000
    5      -13.238208   1.000000
    6      -13.238195   1.000000
    7      -12.996195   1.000000
    8      -12.996156   1.000000
    9       -6.055925   1.000000
   10       -6.055876   1.000000
   11       -5.494807   1.000000
   12       -5.494763   1.000000
   13       -2.778432   1.000000
   14       -2.775865   1.000000
   15       -2.739780   1.000000
   16       -2.731899   1.000000
   17       -2.711967   1.000000
   18       -2.701943   1.000000
   19       -2.636378   1.000000
   20       -2.629703   1.000000
   21       -2.575148   1.000000
   22       -2.569724   1.000000
   23       -1.910727   1.000000
   24       -1.906636   1.000000
   25       -1.674702   1.000000
   26       -1.664600   1.000000
   27       -1.612977   1.000000
   28       -1.609603   1.000000
   29       -1.519273   1.000000
   30       -1.511285   1.000000
   31       -1.297966   1.000000
   32       -1.292363   1.000000
   33       -0.573193   1.000000
   34       -0.571773   1.000000
   35        0.084689   1.000000
   36        0.085221   1.000000
   37        2.424087   0.000000
   38        2.439991   0.000000
   39        2.487477   0.000000
   40        2.504511   0.000000
   41        2.518766   0.000000
   42        2.550403   0.000000
   43        2.568683   0.000000
   44        2.584471   0.000000
   45        2.616220   0.000000
   46        2.617965   0.000000
   47        2.629629   0.000000
   48        2.645474   0.000000
   49        2.669749   0.000000
   50        2.692981   0.000000
   51        2.720616   0.000000
   52        2.727509   0.000000
   53        5.213370   0.000000
   54        5.213629   0.000000
   55        5.360981   0.000000
   56        5.361510   0.000000
   57        6.252876   0.000000
   58        6.253166   0.000000
   59        6.554159   0.000000
   60        6.554904   0.000000
   61        6.700779   0.000000
   62        6.701458   0.000000
   63        7.840959   0.000000
   64        7.841009   0.000000
 
  0.0000000E+00  0.0000000E+00  0.0000000E+00  0.2040816E-01
    1      -14.348519   1.000000
    2      -14.348519   1.000000
    3      -14.173035   1.000000
    4      -14.173035   1.000000
    5      -13.256419   1.000000
    6      -13.256419   1.000000
    7      -13.012220   1.000000
    8      -13.012220   1.000000
    9       -6.095725   1.000000
   10       -6.095725   1.000000
   11       -5.534537   1.000000
   12       -5.534537   1.000000
   13       -2.718357   1.000000
   14       -2.718357   1.000000
   15       -2.673563   1.000000
   16       -2.673563   1.000000
   17       -2.655365   1.000000
   18       -2.655365   1.000000
   19       -2.626412   1.000000
   20       -2.626412   1.000000
   21       -2.577360   1.000000
   22       -2.577360   1.000000
   23       -1.652620   1.000000
   24       -1.652620   1.000000
   25       -1.593233   1.000000
   26       -1.593233   1.000000
   27       -1.564022   1.000000
   28       -1.564022   1.000000
   29       -1.547288   1.000000
   30       -1.547288   1.000000
   31       -1.498765   1.000000
   32       -1.498765   1.000000
   33       -0.570280   1.000000
   34       -0.570280   1.000000
   35        0.125709   1.000000
   36        0.125709   1.000000
   37        2.451756   0.000000
   38        2.451756   0.000000
   39        2.521133   0.000000
   40        2.521133   0.000000
   41        2.532246   0.000000
   42        2.532246   0.000000
   43        2.599778   0.000000
   44        2.599778   0.000000
   45        2.664155   0.000000
   46        2.664155   0.000000
   47        2.682744   0.000000
   48        2.682744   0.000000
   49        2.747661   0.000000
   50        2.747661   0.000000
   51        2.755356   0.000000
   52        2.755356   0.000000
   53        5.157063   0.000000
   54        5.157063   0.000000
   55        5.304318   0.000000
   56        5.304318   0.000000
   57        6.134469   0.000000
   58        6.134469   0.000000
   59        6.400152   0.000000
   60        6.400152   0.000000
   61        6.607859   0.000000
   62        6.607859   0.000000
   63        7.794776   0.000000
   64        7.794776   0.000000
 
 -0.2777778E-01 -0.5555556E-01  0.0000000E+00  0.2040816E-01
    1      -14.315341   1.000000
    2      -14.315254   1.000000
    3      -14.140185   1.000000
    4      -14.140055   1.000000
    5      -13.238208   1.000000
    6      -13.238195   1.000000
    7      -12.996195   1.000000
    8      -12.996156   1.000000
    9       -6.055925   1.000000
   10       -6.055876   1.000000
   11       -5.494807   1.000000
   12       -5.494763   1.000000
   13       -2.778432   1.000000
   14       -2.775865   1.000000
   15       -2.739780   1.000000
   16       -2.731899   1.000000
   17       -2.711967   1.000000
   18       -2.701943   1.000000
   19       -2.636378   1.000000
   20       -2.629703   1.000000
   21       -2.575148   1.000000
   22       -2.569724   1.000000
   23       -1.910727   1.000000
   24       -1.906636   1.000000
   25       -1.674702   1.000000
   26       -1.664600   1.000000
   27       -1.612977   1.000000
   28       -1.609603   1.000000
   29       -1.519273   1.000000
   30       -1.511285   1.000000
   31       -1.297966   1.000000
   32       -1.292363   1.000000
   33       -0.573193   1.000000
   34       -0.571773   1.000000
   35        0.084689   1.000000
   36        0.085221   1.000000
   37        2.424087   0.000000
   38        2.439991   0.000000
   39        2.487477   0.000000
   40        2.504511   0.000000
   41        2.518766   0.000000
   42        2.550403   0.000000
   43        2.568683   0.000000
   44        2.584471   0.000000
   45        2.616220   0.000000
   46        2.617965   0.000000
   47        2.629629   0.000000
   48        2.645474   0.000000
   49        2.669749   0.000000
   50        2.692981   0.000000
   51        2.720616   0.000000
   52        2.727509   0.000000
   53        5.213370   0.000000
   54        5.213629   0.000000
   55        5.360981   0.000000
   56        5.361510   0.000000
   57        6.252876   0.000000
   58        6.253166   0.000000
   59        6.554159   0.000000
   60        6.554904   0.000000
   61        6.700779   0.000000
   62        6.701458   0.000000
   63        7.840959   0.000000
   64        7.841009   0.000000
 
 -0.5555556E-01 -0.1111111E+00  0.0000000E+00  0.2040816E-01
    1      -14.217214   1.000000
    2      -14.216912   1.000000
    3      -14.043117   1.000000
    4      -14.042743   1.000000
    5      -13.184421   1.000000
    6      -13.184373   1.000000
    7      -12.948899   1.000000
    8      -12.948812   1.000000
    9       -5.941254   1.000000
   10       -5.940846   1.000000
   11       -5.381046   1.000000
   12       -5.380693   1.000000
   13       -2.996817   1.000000
   14       -2.991349   1.000000
   15       -2.950417   1.000000
   16       -2.933328   1.000000
   17       -2.925894   1.000000
   18       -2.907175   1.000000
   19       -2.545900   1.000000
   20       -2.534246   1.000000
   21       -2.482672   1.000000
   22       -2.472937   1.000000
   23       -2.264920   1.000000
   24       -2.260887   1.000000
   25       -1.857170   1.000000
   26       -1.845124   1.000000
   27       -1.791603   1.000000
   28       -1.780193   1.000000
   29       -1.461459   1.000000
   30       -1.438977   1.000000
   31       -1.122992   1.000000
   32       -1.108945   1.000000
   33       -0.592037   1.000000
   34       -0.589298   1.000000
   35       -0.048285   1.000000
   36       -0.046422   1.000000
   37        2.295430   0.000000
   38        2.300466   0.000000
   39        2.318137   0.000000
   40        2.350724   0.000000
   41        2.376252   0.000000
   42        2.396877   0.000000
   43        2.437809   0.000000
   44        2.453237   0.000000
   45        2.491451   0.000000
   46        2.511382   0.000000
   47        2.590819   0.000000
   48        2.613943   0.000000
   49        2.719567   0.000000
   50        2.761888   0.000000
   51        2.808587   0.000000
   52        2.847934   0.000000
   53        5.366690   0.000000
   54        5.367166   0.000000
   55        5.515233   0.000000
   56        5.516035   0.000000
   57        6.504177   0.000000
   58        6.504975   0.000000
   59        6.969182   0.000000
   60        6.971398   0.000000
   61        7.036478   0.000000
   62        7.038575   0.000000
   63        7.980172   0.000000
   64        7.980397   0.000000
 
 -0.8333333E-01 -0.1666667E+00  0.0000000E+00  0.2040816E-01
    1      -14.058634   1.000000
    2      -14.057746   1.000000
    3      -13.886617   1.000000
    4      -13.885611   1.000000
    5      -13.097614   1.000000
    6      -13.097469   1.000000
    7      -12.872817   1.000000
    8      -12.872640   1.000000
    9       -5.766676   1.000000
   10       -5.765191   1.000000
   11       -5.210900   1.000000
   12       -5.209566   1.000000
   13       -3.309912   1.000000
   14       -3.301235   1.000000
   15       -3.251870   1.000000
   16       -3.242164   1.000000
   17       -3.179218   1.000000
   18       -3.173717   1.000000
   19       -2.619597   1.000000
   20       -2.617516   1.000000
   21       -2.393859   1.000000
   22       -2.371579   1.000000
   23       -2.330716   1.000000
   24       -2.307703   1.000000
   25       -2.165068   1.000000
   26       -2.157565   1.000000
   27       -2.099805   1.000000
   28       -2.091089   1.000000
   29       -1.397774   1.000000
   30       -1.366569   1.000000
   31       -1.040600   1.000000
   32       -1.018084   1.000000
   33       -0.655260   1.000000
   34       -0.650379   1.000000
   35       -0.281221   1.000000
   36       -0.273854   1.000000
   37        1.988199   0.000000
   38        2.001144   0.000000
   39        2.137084   0.000000
   40        2.169233   0.000000
   41        2.223214   0.000000
   42        2.249592   0.000000
   43        2.328372   0.000000
   44        2.340087   0.000000
   45        2.374282   0.000000
   46        2.388655   0.000000
   47        2.469160   0.000000
   48        2.498579   0.000000
   49        2.962748   0.000000
   50        3.014020   0.000000
   51        3.047189   0.000000
   52        3.094678   0.000000
   53        5.600830   0.000000
   54        5.601577   0.000000
   55        5.747845   0.000000
   56        5.748846   0.000000
   57        6.777624   0.000000
   58        6.778740   0.000000
   59        7.540877   0.000000
   60        7.543731   0.000000
   61        7.596443   0.000000
   62        7.598928   0.000000
   63        8.225038   0.000000
   64        8.225912   0.000000
 
 -0.1111111E+00 -0.2222222E+00  0.0000000E+00  0.2040816E-01
    1      -13.847114   1.000000
    2      -13.845062   1.000000
    3      -13.678732   1.000000
    4      -13.676468   1.000000
    5      -12.982093   1.000000
    6      -12.981752   1.000000
    7      -12.772109   1.000000
    8      -12.771756   1.000000
    9       -5.560870   1.000000
   10       -5.556934   1.000000
   11       -5.020968   1.000000
   12       -5.017147   1.000000
   13       -3.647029   1.000000
   14       -3.638427   1.000000
   15       -3.589827   1.000000
   16       -3.581134   1.000000
   17       -3.426454   1.000000
   18       -3.422322   1.000000
   19       -2.952965   1.000000
   20       -2.938421   1.000000
   21       -2.580583   1.000000
   22       -2.579506   1.000000
   23       -2.512796   1.000000
   24       -2.511625   1.000000
   25       -2.218232   1.000000
   26       -2.186098   1.000000
   27       -2.151036   1.000000
   28       -2.119474   1.000000
   29       -1.363512   1.000000
   30       -1.326705   1.000000
   31       -1.043539   1.000000
   32       -1.015970   1.000000
   33       -0.787224   1.000000
   34       -0.772638   1.000000
   35       -0.584583   1.000000
   36       -0.563345   1.000000
   37        1.717715   0.000000
   38        1.718749   0.000000
   39        1.971498   0.000000
   40        1.991008   0.000000
   41        2.126658   0.000000
   42        2.170863   0.000000
   43        2.202533   0.000000
   44        2.228867   0.000000
   45        2.265623   0.000000
   46        2.301299   0.000000
   47        2.448036   0.000000
   48        2.505391   0.000000
   49        3.259369   0.000000
   50        3.310408   0.000000
   51        3.332895   0.000000
   52        3.382392   0.000000
   53        5.911712   0.000000
   54        5.912960   0.000000
   55        6.052104   0.000000
   56        6.053553   0.000000
   57        7.095911   0.000000
   58        7.097530   0.000000
   59        8.111764   0.000000
   60        8.112603   0.000000
   61        8.170385   0.000000
   62        8.170895   0.000000
   63        8.627768   0.000000
   64        8.628456   0.000000
 
 -0.1388889E+00 -0.2777778E+00  0.0000000E+00  0.2040816E-01
    1      -13.593489   1.000000
    2      -13.589512   1.000000
    3      -13.430940   1.000000
    4      -13.426592   1.000000
    5      -12.843941   1.000000
    6      -12.843271   1.000000
    7      -12.652600   1.000000
    8      -12.651953   1.000000
    9       -5.374230   1.000000
   10       -5.365587   1.000000
   11       -4.886318   1.000000
   12       -4.877148   1.000000
   13       -3.927820   1.000000
   14       -3.923187   1.000000
   15       -3.871213   1.000000
   16       -3.867107   1.000000
   17       -3.646713   1.000000
   18       -3.636255   1.000000
   19       -3.298395   1.000000
   20       -3.267341   1.000000
   21       -3.035152   1.000000
   22       -3.027259   1.000000
   23       -2.957019   1.000000
   24       -2.931971   1.000000
   25       -2.102425   1.000000
   26       -2.050381   1.000000
   27       -2.030196   1.000000
   28       -1.979129   1.000000
   29       -1.374848   1.000000
   30       -1.334319   1.000000
   31       -1.120340   1.000000
   32       -1.090459   1.000000
   33       -0.959394   1.000000
   34       -0.924192   1.000000
   35       -0.876695   1.000000
   36       -0.832173   1.000000
   37        1.509383   0.000000
   38        1.531821   0.000000
   39        1.799156   0.000000
   40        1.856147   0.000000
   41        2.113815   0.000000
   42        2.136965   0.000000
   43        2.146727   0.000000
   44        2.172030   0.000000
   45        2.247514   0.000000
   46        2.313632   0.000000
   47        2.529785   0.000000
   48        2.586946   0.000000
   49        3.553746   0.000000
   50        3.599193   0.000000
   51        3.617319   0.000000
   52        3.662275   0.000000
   53        6.295945   0.000000
   54        6.298167   0.000000
   55        6.423137   0.000000
   56        6.425497   0.000000
   57        7.477469   0.000000
   58        7.479995   0.000000
   59        8.424061   0.000000
   60        8.436596   0.000000
   61        8.561235   0.000000
   62        8.574129   0.000000
   63        8.899114   0.000000
   64        8.907203   0.000000
 
 -0.1666667E+00 -0.3333333E+00  0.0000000E+00  0.2040816E-01
    1      -13.312413   1.000000
    2      -13.305590   1.000000
    3      -13.158660   1.000000
    4      -13.151236   1.000000
    5      -12.691161   1.000000
    6      -12.689989   1.000000
    7      -12.521838   1.000000
    8      -12.520763   1.000000
    9       -5.279714   1.000000
   10       -5.265161   1.000000
   11       -4.909990   1.000000
   12       -4.896198   1.000000
   13       -4.107888   1.000000
   14       -4.105963   1.000000
   15       -3.993279   1.000000
   16       -3.992608   1.000000
   17       -3.858541   1.000000
   18       -3.842121   1.000000
   19       -3.716085   1.000000
   20       -3.694261   1.000000
   21       -3.444434   1.000000
   22       -3.424609   1.000000
   23       -3.222767   1.000000
   24       -3.193792   1.000000
   25       -2.161911   1.000000
   26       -2.094278   1.000000
   27       -2.080736   1.000000
   28       -2.014008   1.000000
   29       -1.445270   1.000000
   30       -1.405085   1.000000
   31       -1.260997   1.000000
   32       -1.231162   1.000000
   33       -1.079145   1.000000
   34       -1.021736   1.000000
   35       -0.998097   1.000000
   36       -0.942297   1.000000
   37        1.391340   0.000000
   38        1.438739   0.000000
   39        1.724166   0.000000
   40        1.802962   0.000000
   41        2.163839   0.000000
   42        2.166798   0.000000
   43        2.179135   0.000000
   44        2.221485   0.000000
   45        2.341899   0.000000
   46        2.402920   0.000000
   47        2.642519   0.000000
   48        2.689049   0.000000
   49        3.803912   0.000000
   50        3.839855   0.000000
   51        3.861907   0.000000
   52        3.893752   0.000000
   53        6.745167   0.000000
   54        6.749374   0.000000
   55        6.852184   0.000000
   56        6.856126   0.000000
   57        7.923010   0.000000
   58        7.927122   0.000000
   59        8.267323   0.000000
   60        8.284017   0.000000
   61        8.571741   0.000000
   62        8.595484   0.000000
   63        9.042661   0.000000
   64        9.058314   0.000000
 
 -0.1944444E+00 -0.3888889E+00  0.0000000E+00  0.2040816E-01
    1      -13.022609   1.000000
    2      -13.011950   1.000000
    3      -12.881342   1.000000
    4      -12.869800   1.000000
    5      -12.533557   1.000000
    6      -12.531668   1.000000
    7      -12.388906   1.000000
    8      -12.387271   1.000000
    9       -5.305792   1.000000
   10       -5.290233   1.000000
   11       -5.052645   1.000000
   12       -5.041875   1.000000
   13       -4.336569   1.000000
   14       -4.318030   1.000000
   15       -4.271984   1.000000
   16       -4.255023   1.000000
   17       -4.014253   1.000000
   18       -4.005400   1.000000
   19       -3.880135   1.000000
   20       -3.868464   1.000000
   21       -3.625466   1.000000
   22       -3.604021   1.000000
   23       -3.331724   1.000000
   24       -3.308086   1.000000
   25       -2.416918   1.000000
   26       -2.353929   1.000000
   27       -2.330469   1.000000
   28       -2.267212   1.000000
   29       -1.582815   1.000000
   30       -1.552808   1.000000
   31       -1.455976   1.000000
   32       -1.434308   1.000000
   33       -1.059103   1.000000
   34       -0.976312   1.000000
   35       -0.965070   1.000000
   36       -0.884369   1.000000
   37        1.403331   0.000000
   38        1.464404   0.000000
   39        1.808047   0.000000
   40        1.894902   0.000000
   41        2.254766   0.000000
   42        2.264228   0.000000
   43        2.283852   0.000000
   44        2.300108   0.000000
   45        2.475628   0.000000
   46        2.522577   0.000000
   47        2.750322   0.000000
   48        2.777246   0.000000
   49        3.991839   0.000000
   50        4.013246   0.000000
   51        4.052084   0.000000
   52        4.059194   0.000000
   53        7.236220   0.000000
   54        7.245564   0.000000
   55        7.322495   0.000000
   56        7.329605   0.000000
   57        7.880667   0.000000
   58        7.905408   0.000000
   59        8.268957   0.000000
   60        8.288891   0.000000
   61        8.424540   0.000000
   62        8.427865   0.000000
   63        9.015414   0.000000
   64        9.039043   0.000000
 
 -0.2222222E+00 -0.4444444E+00  0.0000000E+00  0.2040816E-01
    1      -12.746588   1.000000
    2      -12.731240   1.000000
    3      -12.621834   1.000000
    4      -12.605334   1.000000
    5      -12.382701   1.000000
    6      -12.379834   1.000000
    7      -12.264078   1.000000
    8      -12.261791   1.000000
    9       -5.370049   1.000000
   10       -5.360331   1.000000
   11       -5.178071   1.000000
   12       -5.175127   1.000000
   13       -4.733712   1.000000
   14       -4.719106   1.000000
   15       -4.686909   1.000000
   16       -4.672546   1.000000
   17       -3.994616   1.000000
   18       -3.979827   1.000000
   19       -3.837001   1.000000
   20       -3.825193   1.000000
   21       -3.627256   1.000000
   22       -3.609941   1.000000
   23       -3.355618   1.000000
   24       -3.333369   1.000000
   25       -2.771577   1.000000
   26       -2.719558   1.000000
   27       -2.686816   1.000000
   28       -2.633720   1.000000
   29       -1.781502   1.000000
   30       -1.763821   1.000000
   31       -1.678996   1.000000
   32       -1.661936   1.000000
   33       -0.949603   1.000000
   34       -0.863368   1.000000
   35       -0.847991   1.000000
   36       -0.762113   1.000000
   37        1.544928   0.000000
   38        1.597690   0.000000
   39        2.003453   0.000000
   40        2.048392   0.000000
   41        2.342397   0.000000
   42        2.371227   0.000000
   43        2.399398   0.000000
   44        2.437820   0.000000
   45        2.605745   0.000000
   46        2.630415   0.000000
   47        2.824081   0.000000
   48        2.827532   0.000000
   49        4.129221   0.000000
   50        4.130103   0.000000
   51        4.181229   0.000000
   52        4.206265   0.000000
   53        7.460500   0.000000
   54        7.483909   0.000000
   55        7.608481   0.000000
   56        7.626970   0.000000
   57        7.817274   0.000000
   58        7.822085   0.000000
   59        7.963562   0.000000
   60        8.001933   0.000000
   61        8.833815   0.000000
   62        8.841229   0.000000
   63        8.990646   0.000000
   64        9.005576   0.000000
 
 -0.2500000E+00 -0.5000000E+00  0.0000000E+00  0.2040816E-01
    1      -12.508435   1.000000
    2      -12.488009   1.000000
    3      -12.403636   1.000000
    4      -12.382011   1.000000
    5      -12.251352   1.000000
    6      -12.247208   1.000000
    7      -12.157846   1.000000
    8      -12.154908   1.000000
    9       -5.377766   1.000000
   10       -5.376939   1.000000
   11       -5.219780   1.000000
   12       -5.213066   1.000000
   13       -5.089609   1.000000
   14       -5.079685   1.000000
   15       -5.043544   1.000000
   16       -5.032566   1.000000
   17       -3.939666   1.000000
   18       -3.925325   1.000000
   19       -3.829926   1.000000
   20       -3.819859   1.000000
   21       -3.567811   1.000000
   22       -3.550213   1.000000
   23       -3.323623   1.000000
   24       -3.300660   1.000000
   25       -3.155457   1.000000
   26       -3.116659   1.000000
   27       -3.076463   1.000000
   28       -3.036272   1.000000
   29       -2.020653   1.000000
   30       -2.012945   1.000000
   31       -1.910995   1.000000
   32       -1.897861   1.000000
   33       -0.777233   1.000000
   34       -0.700488   1.000000
   35       -0.667003   1.000000
   36       -0.590200   1.000000
   37        1.706489   0.000000
   38        1.724129   0.000000
   39        2.017833   0.000000
   40        2.038952   0.000000
   41        2.468248   0.000000
   42        2.542173   0.000000
   43        2.572671   0.000000
   44        2.668954   0.000000
   45        2.688258   0.000000
   46        2.706620   0.000000
   47        2.845597   0.000000
   48        2.881082   0.000000
   49        4.226278   0.000000
   50        4.256442   0.000000
   51        4.298442   0.000000
   52        4.350343   0.000000
   53        7.114368   0.000000
   54        7.159726   0.000000
   55        7.299398   0.000000
   56        7.317309   0.000000
   57        8.105491   0.000000
   58        8.141777   0.000000
   59        8.221941   0.000000
   60        8.264008   0.000000
   61        8.826866   0.000000
   62        8.849317   0.000000
   63        8.963412   0.000000
   64        9.002158   0.000000
 
 -0.2777778E+00 -0.5555556E+00  0.0000000E+00  0.2040816E-01
    1      -12.329343   1.000000
    2      -12.304142   1.000000
    3      -12.245455   1.000000
    4      -12.219701   1.000000
    5      -12.152386   1.000000
    6      -12.146828   1.000000
    7      -12.078659   1.000000
    8      -12.075167   1.000000
    9       -5.382279   1.000000
   10       -5.374933   1.000000
   11       -5.323556   1.000000
   12       -5.315012   1.000000
   13       -5.252450   1.000000
   14       -5.241682   1.000000
   15       -5.127560   1.000000
   16       -5.109300   1.000000
   17       -3.941636   1.000000
   18       -3.925801   1.000000
   19       -3.905617   1.000000
   20       -3.891387   1.000000
   21       -3.557822   1.000000
   22       -3.505120   1.000000
   23       -3.486285   1.000000
   24       -3.452492   1.000000
   25       -3.413510   1.000000
   26       -3.378499   1.000000
   27       -3.240040   1.000000
   28       -3.203192   1.000000
   29       -2.264878   1.000000
   30       -2.259354   1.000000
   31       -2.136596   1.000000
   32       -2.130413   1.000000
   33       -0.569279   1.000000
   34       -0.497468   1.000000
   35       -0.446589   1.000000
   36       -0.375004   1.000000
   37        1.705139   0.000000
   38        1.714977   0.000000
   39        1.840150   0.000000
   40        1.863006   0.000000
   41        2.572913   0.000000
   42        2.636767   0.000000
   43        2.657814   0.000000
   44        2.694491   0.000000
   45        2.813685   0.000000
   46        2.921979   0.000000
   47        2.975076   0.000000
   48        3.083100   0.000000
   49        4.339023   0.000000
   50        4.394854   0.000000
   51        4.412821   0.000000
   52        4.481828   0.000000
   53        6.840244   0.000000
   54        6.895359   0.000000
   55        7.017727   0.000000
   56        7.063750   0.000000
   57        7.889866   0.000000
   58        7.939111   0.000000
   59        8.140403   0.000000
   60        8.211945   0.000000
   61        9.123152   0.000000
   62        9.130320   0.000000
   63        9.199916   0.000000
   64        9.211586   0.000000
 
 -0.3055556E+00 -0.6111111E+00  0.0000000E+00  0.2040816E-01
    1      -12.222383   1.000000
    2      -12.193352   1.000000
    3      -12.154871   1.000000
    4      -12.126393   1.000000
    5      -12.095364   1.000000
    6      -12.089688   1.000000
    7      -12.030714   1.000000
    8      -12.026655   1.000000
    9       -5.530681   1.000000
   10       -5.523347   1.000000
   11       -5.475620   1.000000
   12       -5.467776   1.000000
   13       -5.054948   1.000000
   14       -5.030448   1.000000
   15       -4.935059   1.000000
   16       -4.906083   1.000000
   17       -4.136839   1.000000
   18       -4.108176   1.000000
   19       -4.102479   1.000000
   20       -4.078690   1.000000
   21       -3.742542   1.000000
   22       -3.728466   1.000000
   23       -3.688959   1.000000
   24       -3.678070   1.000000
   25       -3.295723   1.000000
   26       -3.264969   1.000000
   27       -3.166127   1.000000
   28       -3.121097   1.000000
   29       -2.465584   1.000000
   30       -2.449206   1.000000
   31       -2.328016   1.000000
   32       -2.318866   1.000000
   33       -0.388709   1.000000
   34       -0.317077   1.000000
   35       -0.250474   1.000000
   36       -0.178972   1.000000
   37        1.581349   0.000000
   38        1.587379   0.000000
   39        1.651197   0.000000
   40        1.658667   0.000000
   41        2.573528   0.000000
   42        2.596091   0.000000
   43        2.633454   0.000000
   44        2.638759   0.000000
   45        3.023978   0.000000
   46        3.145304   0.000000
   47        3.162733   0.000000
   48        3.279829   0.000000
   49        4.449667   0.000000
   50        4.496681   0.000000
   51        4.521527   0.000000
   52        4.574940   0.000000
   53        6.640211   0.000000
   54        6.706245   0.000000
   55        7.011070   0.000000
   56        7.088647   0.000000
   57        7.577994   0.000000
   58        7.609696   0.000000
   59        7.887334   0.000000
   60        7.949209   0.000000
   61        9.409735   0.000000
   62        9.412877   0.000000
   63        9.485679   0.000000
   64        9.494475   0.000000
 
 -0.3333333E+00 -0.6666667E+00  0.0000000E+00  0.2040816E-01
    1      -12.189024   1.000000
    2      -12.158347   1.000000
    3      -12.127190   1.000000
    4      -12.096797   1.000000
    5      -12.078541   1.000000
    6      -12.074389   1.000000
    7      -12.015050   1.000000
    8      -12.010631   1.000000
    9       -5.580273   1.000000
   10       -5.573244   1.000000
   11       -5.525525   1.000000
   12       -5.518020   1.000000
   13       -4.865759   1.000000
   14       -4.832299   1.000000
   15       -4.778708   1.000000
   16       -4.744200   1.000000
   17       -4.308805   1.000000
   18       -4.306263   1.000000
   19       -4.283365   1.000000
   20       -4.274540   1.000000
   21       -3.788269   1.000000
   22       -3.787265   1.000000
   23       -3.754334   1.000000
   24       -3.752174   1.000000
   25       -3.204244   1.000000
   26       -3.169884   1.000000
   27       -3.149281   1.000000
   28       -3.103985   1.000000
   29       -2.545860   1.000000
   30       -2.523493   1.000000
   31       -2.410308   1.000000
   32       -2.392994   1.000000
   33       -0.317069   1.000000
   34       -0.246217   1.000000
   35       -0.170393   1.000000
   36       -0.099576   1.000000
   37        1.510578   0.000000
   38        1.512180   0.000000
   39        1.571267   0.000000
   40        1.572750   0.000000
   41        2.552816   0.000000
   42        2.565877   0.000000
   43        2.610032   0.000000
   44        2.611707   0.000000
   45        3.135394   0.000000
   46        3.192485   0.000000
   47        3.281804   0.000000
   48        3.322535   0.000000
   49        4.503400   0.000000
   50        4.525070   0.000000
   51        4.581058   0.000000
   52        4.605405   0.000000
   53        6.588631   0.000000
   54        6.664068   0.000000
   55        7.116804   0.000000
   56        7.232164   0.000000
   57        7.432323   0.000000
   58        7.434315   0.000000
   59        7.710703   0.000000
   60        7.751550   0.000000
   61        9.498292   0.000000
   62        9.502507   0.000000
   63        9.608159   0.000000
   64        9.623118   0.000000
