SYSTEM = MoS2 3r-bilayer fixed-geometry PBE SOC
ISTART = 0
ICHARG = 11
PREC = Accurate
ENCUT = 400
EDIFF = 1E-8
NELM = 160
NELMIN = 6
NBANDS = 64
ALGO = Normal
LREAL = .FALSE.
LASPH = .TRUE.
ISMEAR = 0
SIGMA = 0.02
ISYM = -1
LSORBIT = .TRUE.
SAXIS = 0 0 1
MAGMOM = 0 0 0 0 0 0 0 0 0 0 0 0 0 0 0 0 0 0
GGA_COMPAT = .FALSE.
LMAXMIX = 4
NSW = 0
IBRION = -1
LWAVE = .TRUE.
LCHARG = .FALSE.
LVTOT = .TRUE.
LDIPOL = .TRUE.
IDIPOL = 3
DIPOL = 0 0 0.5
AMIN = 0.01
LVHAR = .TRUE.
LOPTICS = .TRUE.
LPEAD = .FALSE.
LNABLA = .FALSE.
CSHIFT = 0.05
NEDOS = 601
