       N       E                     dE             d eps       ncg     rms          rms(c)
DAV:   1     0.191493651154E+03    0.19149E+03   -0.11983E+04  6408   0.735E+02
DAV:   2    -0.219155068772E+02   -0.21341E+03   -0.19665E+03  8192   0.188E+02
DAV:   3    -0.419741951811E+02   -0.20059E+02   -0.19509E+02  7576   0.567E+01
DAV:   4    -0.425009947252E+02   -0.52680E+00   -0.52441E+00  7856   0.104E+01
DAV:   5    -0.425150298717E+02   -0.14035E-01   -0.14031E-01  7680   0.166E+00
DAV:   6    -0.425155883694E+02   -0.55850E-03   -0.55846E-03  8016   0.338E-01
DAV:   7    -0.425156148067E+02   -0.26437E-04   -0.26437E-04  7744   0.677E-02
DAV:   8    -0.425156162048E+02   -0.13981E-05   -0.13980E-05  8112   0.152E-02
DAV:   9    -0.425156162757E+02   -0.70900E-07   -0.70860E-07  7400   0.323E-03
DAV:  10    -0.425156162795E+02   -0.38817E-08   -0.38313E-08  6504   0.758E-04
   1 F= -.42515616E+02 E0= -.42515616E+02  d E =-.147963E-15  mag=     0.0000    -0.0000    -0.0000
 imaginary and real dielectric function
