Numerical source excerpts: parameter lines, convergence and completion footer.

 vasp.5.4.4.18Apr17-6-g9f103f2a35 (build Sep 13 2026 16:50:19) complex          
   k-points           NKPTS =     49   k-points in BZ     NKDIM =     49   number of bands    NBANDS=     64
   LSORBIT =      T    spin-orbit coupling
   NELECT =      36.0000    total number of electrons
   LDIPOL =      T    correct potential (dipole corrections)
   IDIPOL =      3    1-x, 2-y, 3-z, 4-all directions 
 dipolmoment           0.000000      0.000000     -0.004146 electrons x Angstroem
 dipolmoment           0.000000      0.000000     -0.004146 electrons x Angstroem
 dipolmoment           0.000000      0.000000     -0.004146 electrons x Angstroem
 dipolmoment           0.000000      0.000000     -0.004146 electrons x Angstroem
 dipolmoment           0.000000      0.000000     -0.004146 electrons x Angstroem
 dipolmoment           0.000000      0.000000     -0.004146 electrons x Angstroem
 dipolmoment           0.000000      0.000000     -0.004146 electrons x Angstroem
 dipolmoment           0.000000      0.000000     -0.004146 electrons x Angstroem
 dipolmoment           0.000000      0.000000     -0.004146 electrons x Angstroem
 dipolmoment           0.000000      0.000000     -0.004146 electrons x Angstroem
------------------------ aborting loop because EDIFF is reached ----------------------------------------

General timing and accounting informations for this job:
 ========================================================
  
                  Total CPU time used (sec):     1138.635
                            User time (sec):     1134.351
                          System time (sec):        4.284
                         Elapsed time (sec):     1139.624
  
                   Maximum memory used (kb):  1984118784.
                   Average memory used (kb):           0.
  
                          Minor page faults:       485408
                          Major page faults:           58
                 Voluntary context switches:          107
