SYSTEM = Bi bilayer fresh 6x6 full-torus Wannier NSCF and export
PREC    = Accurate
ENCUT   = 400
EDIFF   = 1E-8
NELM = 200
ISTART = 0
ICHARG = 11
ISPIN   = 1
LSORBIT = .TRUE.
SAXIS   = 0 0 1
MAGMOM  = 6*0.0
LORBIT  = 11
ISYM = -1
LREAL   = .FALSE.
GGA_COMPAT = .FALSE.
LASPH   = .TRUE.
ISMEAR  = 0
SIGMA   = 0.02
LMAXMIX = 2
NSW     = 0
LWAVE = .TRUE.
LCHARG = .FALSE.
NBANDS = 48
ALGO = Normal
NELMIN = 20

LOPTICS = .FALSE.

LPEAD = .FALSE.

LNABLA = .FALSE.

LBERRY_EXPORT = .FALSE.

LSPIN_EXPORT = .FALSE.

LWANNIER90 = .TRUE.

LWANNIER90_RUN = .FALSE.

LWRITE_UNK = .FALSE.

LREUSE_MMN = .FALSE.

LCACHE_WANPROJ = .TRUE.
