    3    3    1    1
  0.4355789E+02  0.3171634E-09  0.3171634E-09  0.1500000E-08  0.5000000E-15
  1.000000000000000E-004
  CAR 
 1H-MoS2 public-CHGCAR SOC NSCF          
     18    144     26
 
  0.0000000E+00  0.0000000E+00  0.0000000E+00  0.6944444E-02
    1      -15.373484   1.000000
    2      -15.373484   1.000000
    3      -14.257296   1.000000
    4      -14.257296   1.000000
    5       -6.903207   1.000000
    6       -6.903207   1.000000
    7       -3.823217   1.000000
    8       -3.823217   1.000000
    9       -3.753280   1.000000
   10       -3.753280   1.000000
   11       -3.233631   1.000000
   12       -3.233631   1.000000
   13       -2.746907   1.000000
   14       -2.746907   1.000000
   15       -2.660336   1.000000
   16       -2.660336   1.000000
   17       -1.536834   1.000000
   18       -1.536834   1.000000
   19        1.376338   0.000000
   20        1.376376   0.000000
   21        1.451006   0.000000
   22        1.451033   0.000000
   23        1.570939   0.000000
   24        1.570959   0.000000
   25        1.578416   0.000000
   26        1.578478   0.000000
 
  0.8333333E-01 -0.6938894E-17  0.0000000E+00  0.6944444E-02
    1      -15.274961   1.000000
    2      -15.274961   1.000000
    3      -14.206835   1.000000
    4      -14.206835   1.000000
    5       -6.784523   1.000000
    6       -6.784523   1.000000
    7       -4.024002   1.000000
    8       -4.024002   1.000000
    9       -3.684185   1.000000
   10       -3.684185   1.000000
   11       -3.606010   1.000000
   12       -3.606010   1.000000
   13       -2.869861   1.000000
   14       -2.869860   1.000000
   15       -2.491535   1.000000
   16       -2.491535   1.000000
   17       -1.575477   1.000000
   18       -1.575477   1.000000
   19        1.248929   0.000000
   20        1.248930   0.000000
   21        1.295992   0.000000
   22        1.295993   0.000000
   23        1.455126   0.000000
   24        1.455128   0.000000
   25        1.596657   0.000000
   26        1.596659   0.000000
 
  0.1666667E+00 -0.2775558E-16  0.0000000E+00  0.6944444E-02
    1      -14.993169   1.000000
    2      -14.993169   1.000000
    3      -14.063072   1.000000
    4      -14.063072   1.000000
    5       -6.481757   1.000000
    6       -6.481757   1.000000
    7       -4.568389   1.000000
    8       -4.568389   1.000000
    9       -4.223035   1.000000
   10       -4.223034   1.000000
   11       -3.384044   1.000000
   12       -3.384043   1.000000
   13       -3.253061   1.000000
   14       -3.253061   1.000000
   15       -2.470998   1.000000
   16       -2.470998   1.000000
   17       -1.768343   1.000000
   18       -1.768343   1.000000
   19        0.815400   0.000000
   20        0.815401   0.000000
   21        1.177628   0.000000
   22        1.177629   0.000000
   23        1.219403   0.000000
   24        1.219404   0.000000
   25        1.963489   0.000000
   26        1.963493   0.000000
 
  0.2500000E+00 -0.2775558E-16  0.0000000E+00  0.6944444E-02
    1      -14.571836   1.000000
    2      -14.571836   1.000000
    3      -13.850604   1.000000
    4      -13.850604   1.000000
    5       -6.240511   1.000000
    6       -6.240511   1.000000
    7       -5.079088   1.000000
    8       -5.079088   1.000000
    9       -4.878416   1.000000
   10       -4.878416   1.000000
   11       -3.692782   1.000000
   12       -3.692781   1.000000
   13       -2.971475   1.000000
   14       -2.971475   1.000000
   15       -2.754570   1.000000
   16       -2.754570   1.000000
   17       -2.146269   1.000000
   18       -2.146269   1.000000
   19        0.672109   0.000000
   20        0.672110   0.000000
   21        0.947940   0.000000
   22        0.947941   0.000000
   23        1.499709   0.000000
   24        1.499709   0.000000
   25        2.339988   0.000000
   26        2.340053   0.000000
 
  0.3333333E+00 -0.2775558E-16  0.0000000E+00  0.6944444E-02
    1      -14.093200   1.000000
    2      -14.093200   1.000000
    3      -13.614975   1.000000
    4      -13.614975   1.000000
    5       -6.481499   1.000000
    6       -6.481499   1.000000
    7       -5.513427   1.000000
    8       -5.513427   1.000000
    9       -5.218968   1.000000
   10       -5.218968   1.000000
   11       -4.059608   1.000000
   12       -4.059608   1.000000
   13       -3.079110   1.000000
   14       -3.079110   1.000000
   15       -2.566419   1.000000
   16       -2.566418   1.000000
   17       -2.351521   1.000000
   18       -2.351519   1.000000
   19        0.797425   0.000000
   20        0.797427   0.000000
   21        0.885740   0.000000
   22        0.885742   0.000000
   23        1.975803   0.000000
   24        1.975803   0.000000
   25        2.606981   0.000000
   26        2.606985   0.000000
 
  0.4166667E+00 -0.5551115E-16  0.0000000E+00  0.6944444E-02
    1      -13.690011   1.000000
    2      -13.690011   1.000000
    3      -13.423623   1.000000
    4      -13.423623   1.000000
    5       -6.895075   1.000000
    6       -6.895075   1.000000
    7       -5.988379   1.000000
    8       -5.988379   1.000000
    9       -5.312065   1.000000
   10       -5.312065   1.000000
   11       -4.297828   1.000000
   12       -4.297828   1.000000
   13       -3.273887   1.000000
   14       -3.273887   1.000000
   15       -2.301114   1.000000
   16       -2.301113   1.000000
   17       -2.169466   1.000000
   18       -2.169465   1.000000
   19        0.838168   0.000000
   20        0.838168   0.000000
   21        1.177703   0.000000
   22        1.177703   0.000000
   23        2.345837   0.000000
   24        2.345838   0.000000
   25        2.749800   0.000000
   26        2.749801   0.000000
 
  0.5000000E+00 -0.5551115E-16  0.0000000E+00  0.6944444E-02
    1      -13.526937   1.000000
    2      -13.526937   1.000000
    3      -13.348717   1.000000
    4      -13.348717   1.000000
    5       -7.074798   1.000000
    6       -7.074798   1.000000
    7       -6.166496   1.000000
    8       -6.166496   1.000000
    9       -5.379520   1.000000
   10       -5.379520   1.000000
   11       -4.379912   1.000000
   12       -4.379912   1.000000
   13       -3.335888   1.000000
   14       -3.335888   1.000000
   15       -2.206134   1.000000
   16       -2.206134   1.000000
   17       -2.014542   1.000000
   18       -2.014542   1.000000
   19        0.879161   0.000000
   20        0.879161   0.000000
   21        1.354046   0.000000
   22        1.354046   0.000000
   23        2.472759   0.000000
   24        2.472759   0.000000
   25        2.793004   0.000000
   26        2.793011   0.000000
 
 -0.4166667E+00  0.5551115E-16  0.0000000E+00  0.6944444E-02
    1      -13.690011   1.000000
    2      -13.690011   1.000000
    3      -13.423623   1.000000
    4      -13.423623   1.000000
    5       -6.895075   1.000000
    6       -6.895075   1.000000
    7       -5.988379   1.000000
    8       -5.988379   1.000000
    9       -5.312065   1.000000
   10       -5.312065   1.000000
   11       -4.297828   1.000000
   12       -4.297828   1.000000
   13       -3.273887   1.000000
   14       -3.273887   1.000000
   15       -2.301114   1.000000
   16       -2.301113   1.000000
   17       -2.169466   1.000000
   18       -2.169465   1.000000
   19        0.838168   0.000000
   20        0.838168   0.000000
   21        1.177703   0.000000
   22        1.177703   0.000000
   23        2.345837   0.000000
   24        2.345839   0.000000
   25        2.749800   0.000000
   26        2.749801   0.000000
 
 -0.3333333E+00  0.2775558E-16  0.0000000E+00  0.6944444E-02
    1      -14.093200   1.000000
    2      -14.093200   1.000000
    3      -13.614975   1.000000
    4      -13.614975   1.000000
    5       -6.481499   1.000000
    6       -6.481499   1.000000
    7       -5.513427   1.000000
    8       -5.513427   1.000000
    9       -5.218968   1.000000
   10       -5.218968   1.000000
   11       -4.059608   1.000000
   12       -4.059608   1.000000
   13       -3.079110   1.000000
   14       -3.079110   1.000000
   15       -2.566419   1.000000
   16       -2.566418   1.000000
   17       -2.351521   1.000000
   18       -2.351519   1.000000
   19        0.797425   0.000000
   20        0.797427   0.000000
   21        0.885740   0.000000
   22        0.885742   0.000000
   23        1.975803   0.000000
   24        1.975803   0.000000
   25        2.606982   0.000000
   26        2.607030   0.000000
 
 -0.2500000E+00  0.2775558E-16  0.0000000E+00  0.6944444E-02
    1      -14.571836   1.000000
    2      -14.571836   1.000000
    3      -13.850604   1.000000
    4      -13.850604   1.000000
    5       -6.240511   1.000000
    6       -6.240511   1.000000
    7       -5.079088   1.000000
    8       -5.079088   1.000000
    9       -4.878416   1.000000
   10       -4.878416   1.000000
   11       -3.692782   1.000000
   12       -3.692781   1.000000
   13       -2.971475   1.000000
   14       -2.971475   1.000000
   15       -2.754570   1.000000
   16       -2.754570   1.000000
   17       -2.146269   1.000000
   18       -2.146269   1.000000
   19        0.672109   0.000000
   20        0.672110   0.000000
   21        0.947940   0.000000
   22        0.947941   0.000000
   23        1.499709   0.000000
   24        1.499710   0.000000
   25        2.339988   0.000000
   26        2.340006   0.000000
 
 -0.1666667E+00  0.1387779E-16  0.0000000E+00  0.6944444E-02
    1      -14.993169   1.000000
    2      -14.993169   1.000000
    3      -14.063072   1.000000
    4      -14.063072   1.000000
    5       -6.481757   1.000000
    6       -6.481757   1.000000
    7       -4.568389   1.000000
    8       -4.568389   1.000000
    9       -4.223035   1.000000
   10       -4.223034   1.000000
   11       -3.384044   1.000000
   12       -3.384043   1.000000
   13       -3.253061   1.000000
   14       -3.253061   1.000000
   15       -2.470998   1.000000
   16       -2.470998   1.000000
   17       -1.768343   1.000000
   18       -1.768343   1.000000
   19        0.815400   0.000000
   20        0.815401   0.000000
   21        1.177628   0.000000
   22        1.177629   0.000000
   23        1.219403   0.000000
   24        1.219403   0.000000
   25        1.963489   0.000000
   26        1.963521   0.000000
 
 -0.8333333E-01  0.6938894E-17  0.0000000E+00  0.6944444E-02
    1      -15.274961   1.000000
    2      -15.274961   1.000000
    3      -14.206835   1.000000
    4      -14.206835   1.000000
    5       -6.784523   1.000000
    6       -6.784523   1.000000
    7       -4.024002   1.000000
    8       -4.024002   1.000000
    9       -3.684185   1.000000
   10       -3.684185   1.000000
   11       -3.606010   1.000000
   12       -3.606010   1.000000
   13       -2.869861   1.000000
   14       -2.869860   1.000000
   15       -2.491535   1.000000
   16       -2.491535   1.000000
   17       -1.575477   1.000000
   18       -1.575477   1.000000
   19        1.248929   0.000000
   20        1.248931   0.000000
   21        1.295992   0.000000
   22        1.295994   0.000000
   23        1.455127   0.000000
   24        1.455132   0.000000
   25        1.596658   0.000000
   26        1.596685   0.000000
 
  0.0000000E+00  0.8333333E-01  0.0000000E+00  0.6944444E-02
    1      -15.274961   1.000000
    2      -15.274961   1.000000
    3      -14.206835   1.000000
    4      -14.206835   1.000000
    5       -6.784523   1.000000
    6       -6.784523   1.000000
    7       -4.024002   1.000000
    8       -4.024002   1.000000
    9       -3.684185   1.000000
   10       -3.684185   1.000000
   11       -3.606010   1.000000
   12       -3.606010   1.000000
   13       -2.869861   1.000000
   14       -2.869860   1.000000
   15       -2.491535   1.000000
   16       -2.491535   1.000000
   17       -1.575477   1.000000
   18       -1.575477   1.000000
   19        1.248929   0.000000
   20        1.248930   0.000000
   21        1.295992   0.000000
   22        1.295993   0.000000
   23        1.455126   0.000000
   24        1.455126   0.000000
   25        1.596657   0.000000
   26        1.596659   0.000000
 
  0.8333333E-01  0.8333333E-01  0.0000000E+00  0.6944444E-02
    1      -15.274961   1.000000
    2      -15.274961   1.000000
    3      -14.206836   1.000000
    4      -14.206836   1.000000
    5       -6.784522   1.000000
    6       -6.784522   1.000000
    7       -4.023999   1.000000
    8       -4.023999   1.000000
    9       -3.684188   1.000000
   10       -3.684188   1.000000
   11       -3.606014   1.000000
   12       -3.606014   1.000000
   13       -2.869854   1.000000
   14       -2.869854   1.000000
   15       -2.491537   1.000000
   16       -2.491537   1.000000
   17       -1.575477   1.000000
   18       -1.575477   1.000000
   19        1.248934   0.000000
   20        1.248938   0.000000
   21        1.295994   0.000000
   22        1.296020   0.000000
   23        1.455128   0.000000
   24        1.455168   0.000000
   25        1.596650   0.000000
   26        1.596746   0.000000
 
  0.1666667E+00  0.8333333E-01  0.0000000E+00  0.6944444E-02
    1      -15.085140   1.000000
    2      -15.084236   1.000000
    3      -14.109651   1.000000
    4      -14.109527   1.000000
    5       -6.571214   1.000000
    6       -6.569803   1.000000
    7       -4.408208   1.000000
    8       -4.398395   1.000000
    9       -4.016418   1.000000
   10       -4.016329   1.000000
   11       -3.496490   1.000000
   12       -3.474340   1.000000
   13       -3.262674   1.000000
   14       -3.252979   1.000000
   15       -2.356048   1.000000
   16       -2.327493   1.000000
   17       -1.693636   1.000000
   18       -1.688563   1.000000
   19        0.915294   0.000000
   20        0.927102   0.000000
   21        1.091695   0.000000
   22        1.141950   0.000000
   23        1.250172   0.000000
   24        1.278998   0.000000
   25        1.870531   0.000000
   26        1.919020   0.000000
 
  0.2500000E+00  0.8333333E-01  0.0000000E+00  0.6944444E-02
    1      -14.733496   1.000000
    2      -14.730772   1.000000
    3      -13.930604   1.000000
    4      -13.930234   1.000000
    5       -6.270865   1.000000
    6       -6.265438   1.000000
    7       -4.916201   1.000000
    8       -4.911316   1.000000
    9       -4.546293   1.000000
   10       -4.538136   1.000000
   11       -3.826619   1.000000
   12       -3.825438   1.000000
   13       -3.204088   1.000000
   14       -3.167475   1.000000
   15       -2.421481   1.000000
   16       -2.389919   1.000000
   17       -1.997410   1.000000
   18       -1.969738   1.000000
   19        0.602429   0.000000
   20        0.624886   0.000000
   21        1.035609   0.000000
   22        1.041882   0.000000
   23        1.153197   0.000000
   24        1.219992   0.000000
   25        2.288252   0.000000
   26        2.334313   0.000000
 
  0.3333333E+00  0.8333333E-01  0.0000000E+00  0.6944444E-02
    1      -14.281200   1.000000
    2      -14.275768   1.000000
    3      -13.703474   1.000000
    4      -13.702759   1.000000
    5       -6.271210   1.000000
    6       -6.262837   1.000000
    7       -5.205996   1.000000
    8       -5.197434   1.000000
    9       -5.155211   1.000000
   10       -5.150287   1.000000
   11       -4.209617   1.000000
   12       -4.202867   1.000000
   13       -3.019226   1.000000
   14       -2.955420   1.000000
   15       -2.734595   1.000000
   16       -2.709046   1.000000
   17       -2.243121   1.000000
   18       -2.172632   1.000000
   19        0.539601   0.000000
   20        0.596544   0.000000
   21        0.991923   0.000000
   22        1.012721   0.000000
   23        1.533500   0.000000
   24        1.582291   0.000000
   25        2.614238   0.000000
   26        2.649699   0.000000
 
  0.4166667E+00  0.8333333E-01  0.0000000E+00  0.6944444E-02
    1      -13.833393   1.000000
    2      -13.824718   1.000000
    3      -13.484173   1.000000
    4      -13.483094   1.000000
    5       -6.637883   1.000000
    6       -6.637731   1.000000
    7       -5.812603   1.000000
    8       -5.806334   1.000000
    9       -5.207808   1.000000
   10       -5.205926   1.000000
   11       -4.378789   1.000000
   12       -4.371679   1.000000
   13       -3.080076   1.000000
   14       -3.075260   1.000000
   15       -2.927330   1.000000
   16       -2.874844   1.000000
   17       -2.102682   1.000000
   18       -2.014916   1.000000
   19        0.722786   0.000000
   20        0.760170   0.000000
   21        1.125164   0.000000
   22        1.136182   0.000000
   23        2.002869   0.000000
   24        2.034723   0.000000
   25        2.755479   0.000000
   26        2.775599   0.000000
 
  0.5000000E+00  0.8333333E-01  0.0000000E+00  0.6944444E-02
    1      -13.541112   1.000000
    2      -13.529920   1.000000
    3      -13.345411   1.000000
    4      -13.344109   1.000000
    5       -6.936706   1.000000
    6       -6.928682   1.000000
    7       -6.174525   1.000000
    8       -6.170068   1.000000
    9       -5.323105   1.000000
   10       -5.320004   1.000000
   11       -4.430447   1.000000
   12       -4.423176   1.000000
   13       -3.292223   1.000000
   14       -3.284996   1.000000
   15       -2.817696   1.000000
   16       -2.758896   1.000000
   17       -1.873302   1.000000
   18       -1.778701   1.000000
   19        0.859461   0.000000
   20        0.894953   0.000000
   21        1.310082   0.000000
   22        1.403097   0.000000
   23        2.383825   0.000000
   24        2.399101   0.000000
   25        2.692227   0.000000
   26        2.695541   0.000000
 
 -0.4166667E+00  0.8333333E-01  0.0000000E+00  0.6944444E-02
    1      -13.541112   1.000000
    2      -13.529920   1.000000
    3      -13.345411   1.000000
    4      -13.344109   1.000000
    5       -6.936706   1.000000
    6       -6.928682   1.000000
    7       -6.174526   1.000000
    8       -6.170069   1.000000
    9       -5.323105   1.000000
   10       -5.320003   1.000000
   11       -4.430446   1.000000
   12       -4.423175   1.000000
   13       -3.292224   1.000000
   14       -3.284997   1.000000
   15       -2.817696   1.000000
   16       -2.758896   1.000000
   17       -1.873303   1.000000
   18       -1.778701   1.000000
   19        0.859460   0.000000
   20        0.894952   0.000000
   21        1.310083   0.000000
   22        1.403098   0.000000
   23        2.383823   0.000000
   24        2.399099   0.000000
   25        2.692228   0.000000
   26        2.695542   0.000000
 
 -0.3333333E+00  0.8333333E-01  0.0000000E+00  0.6944444E-02
    1      -13.833393   1.000000
    2      -13.824719   1.000000
    3      -13.484172   1.000000
    4      -13.483093   1.000000
    5       -6.637884   1.000000
    6       -6.637731   1.000000
    7       -5.812606   1.000000
    8       -5.806336   1.000000
    9       -5.207807   1.000000
   10       -5.205926   1.000000
   11       -4.378788   1.000000
   12       -4.371677   1.000000
   13       -3.080077   1.000000
   14       -3.075261   1.000000
   15       -2.927330   1.000000
   16       -2.874845   1.000000
   17       -2.102682   1.000000
   18       -2.014917   1.000000
   19        0.722784   0.000000
   20        0.760168   0.000000
   21        1.125168   0.000000
   22        1.136185   0.000000
   23        2.002867   0.000000
   24        2.034721   0.000000
   25        2.755479   0.000000
   26        2.775600   0.000000
 
 -0.2500000E+00  0.8333333E-01  0.0000000E+00  0.6944444E-02
    1      -14.281200   1.000000
    2      -14.275768   1.000000
    3      -13.703474   1.000000
    4      -13.702759   1.000000
    5       -6.271211   1.000000
    6       -6.262837   1.000000
    7       -5.205998   1.000000
    8       -5.197436   1.000000
    9       -5.155212   1.000000
   10       -5.150289   1.000000
   11       -4.209616   1.000000
   12       -4.202867   1.000000
   13       -3.019224   1.000000
   14       -2.955418   1.000000
   15       -2.734595   1.000000
   16       -2.709046   1.000000
   17       -2.243121   1.000000
   18       -2.172632   1.000000
   19        0.539596   0.000000
   20        0.596539   0.000000
   21        0.991928   0.000000
   22        1.012726   0.000000
   23        1.533496   0.000000
   24        1.582287   0.000000
   25        2.614243   0.000000
   26        2.649704   0.000000
 
 -0.1666667E+00  0.8333333E-01  0.0000000E+00  0.6944444E-02
    1      -14.733496   1.000000
    2      -14.730772   1.000000
    3      -13.930603   1.000000
    4      -13.930233   1.000000
    5       -6.270866   1.000000
    6       -6.265438   1.000000
    7       -4.916204   1.000000
    8       -4.911318   1.000000
    9       -4.546291   1.000000
   10       -4.538134   1.000000
   11       -3.826623   1.000000
   12       -3.825441   1.000000
   13       -3.204084   1.000000
   14       -3.167471   1.000000
   15       -2.421480   1.000000
   16       -2.389918   1.000000
   17       -1.997410   1.000000
   18       -1.969738   1.000000
   19        0.602423   0.000000
   20        0.624882   0.000000
   21        1.035613   0.000000
   22        1.041887   0.000000
   23        1.153193   0.000000
   24        1.219988   0.000000
   25        2.288258   0.000000
   26        2.334321   0.000000
 
 -0.8333333E-01  0.8333333E-01  0.0000000E+00  0.6944444E-02
    1      -15.085140   1.000000
    2      -15.084236   1.000000
    3      -14.109651   1.000000
    4      -14.109527   1.000000
    5       -6.571215   1.000000
    6       -6.569804   1.000000
    7       -4.408212   1.000000
    8       -4.398398   1.000000
    9       -4.016413   1.000000
   10       -4.016325   1.000000
   11       -3.496486   1.000000
   12       -3.474336   1.000000
   13       -3.262681   1.000000
   14       -3.252987   1.000000
   15       -2.356047   1.000000
   16       -2.327492   1.000000
   17       -1.693635   1.000000
   18       -1.688563   1.000000
   19        0.915294   0.000000
   20        0.927099   0.000000
   21        1.091688   0.000000
   22        1.141947   0.000000
   23        1.250175   0.000000
   24        1.278999   0.000000
   25        1.870525   0.000000
   26        1.919029   0.000000
 
  0.0000000E+00  0.1666667E+00  0.0000000E+00  0.6944444E-02
    1      -14.993169   1.000000
    2      -14.993169   1.000000
    3      -14.063072   1.000000
    4      -14.063072   1.000000
    5       -6.481757   1.000000
    6       -6.481757   1.000000
    7       -4.568389   1.000000
    8       -4.568389   1.000000
    9       -4.223035   1.000000
   10       -4.223034   1.000000
   11       -3.384044   1.000000
   12       -3.384043   1.000000
   13       -3.253061   1.000000
   14       -3.253061   1.000000
   15       -2.470998   1.000000
   16       -2.470998   1.000000
   17       -1.768343   1.000000
   18       -1.768343   1.000000
   19        0.815400   0.000000
   20        0.815401   0.000000
   21        1.177628   0.000000
   22        1.177629   0.000000
   23        1.219403   0.000000
   24        1.219404   0.000000
   25        1.963488   0.000000
   26        1.963489   0.000000
 
  0.8333333E-01  0.1666667E+00  0.0000000E+00  0.6944444E-02
    1      -15.085140   1.000000
    2      -15.084236   1.000000
    3      -14.109651   1.000000
    4      -14.109527   1.000000
    5       -6.571214   1.000000
    6       -6.569803   1.000000
    7       -4.408208   1.000000
    8       -4.398395   1.000000
    9       -4.016418   1.000000
   10       -4.016329   1.000000
   11       -3.496490   1.000000
   12       -3.474340   1.000000
   13       -3.262674   1.000000
   14       -3.252979   1.000000
   15       -2.356048   1.000000
   16       -2.327493   1.000000
   17       -1.693636   1.000000
   18       -1.688563   1.000000
   19        0.915294   0.000000
   20        0.927102   0.000000
   21        1.091694   0.000000
   22        1.141950   0.000000
   23        1.250171   0.000000
   24        1.279002   0.000000
   25        1.870509   0.000000
   26        1.919045   0.000000
 
  0.1666667E+00  0.1666667E+00  0.0000000E+00  0.6944444E-02
    1      -14.993169   1.000000
    2      -14.993169   1.000000
    3      -14.063073   1.000000
    4      -14.063073   1.000000
    5       -6.481755   1.000000
    6       -6.481755   1.000000
    7       -4.568386   1.000000
    8       -4.568386   1.000000
    9       -4.223038   1.000000
   10       -4.223038   1.000000
   11       -3.384046   1.000000
   12       -3.384046   1.000000
   13       -3.253056   1.000000
   14       -3.253056   1.000000
   15       -2.470996   1.000000
   16       -2.470996   1.000000
   17       -1.768344   1.000000
   18       -1.768344   1.000000
   19        0.815400   0.000000
   20        0.815400   0.000000
   21        1.177630   0.000000
   22        1.177631   0.000000
   23        1.219405   0.000000
   24        1.219405   0.000000
   25        1.963485   0.000000
   26        1.963489   0.000000
 
  0.2500000E+00  0.1666667E+00  0.0000000E+00  0.6944444E-02
    1      -14.733496   1.000000
    2      -14.730771   1.000000
    3      -13.930604   1.000000
    4      -13.930234   1.000000
    5       -6.270864   1.000000
    6       -6.265437   1.000000
    7       -4.916200   1.000000
    8       -4.911315   1.000000
    9       -4.546294   1.000000
   10       -4.538138   1.000000
   11       -3.826616   1.000000
   12       -3.825435   1.000000
   13       -3.204089   1.000000
   14       -3.167476   1.000000
   15       -2.421479   1.000000
   16       -2.389917   1.000000
   17       -1.997411   1.000000
   18       -1.969739   1.000000
   19        0.602428   0.000000
   20        0.624886   0.000000
   21        1.035610   0.000000
   22        1.041884   0.000000
   23        1.153197   0.000000
   24        1.219991   0.000000
   25        2.288283   0.000000
   26        2.334338   0.000000
 
  0.3333333E+00  0.1666667E+00  0.0000000E+00  0.6944444E-02
    1      -14.348246   1.000000
    2      -14.340991   1.000000
    3      -13.734382   1.000000
    4      -13.733419   1.000000
    5       -6.172957   1.000000
    6       -6.158586   1.000000
    7       -5.108629   1.000000
    8       -5.103292   1.000000
    9       -4.949347   1.000000
   10       -4.920534   1.000000
   11       -4.502055   1.000000
   12       -4.475523   1.000000
   13       -3.247830   1.000000
   14       -3.179087   1.000000
   15       -2.476586   1.000000
   16       -2.441747   1.000000
   17       -2.185397   1.000000
   18       -2.108415   1.000000
   19        0.417405   0.000000
   20        0.482480   0.000000
   21        1.050153   0.000000
   22        1.063415   0.000000
   23        1.246522   0.000000
   24        1.303854   0.000000
   25        2.672057   0.000000
   26        2.709534   0.000000
 
  0.4166667E+00  0.1666667E+00  0.0000000E+00  0.6944444E-02
    1      -13.917158   1.000000
    2      -13.903923   1.000000
    3      -13.516004   1.000000
    4      -13.514323   1.000000
    5       -6.370847   1.000000
    6       -6.363103   1.000000
    7       -5.641894   1.000000
    8       -5.626755   1.000000
    9       -5.043725   1.000000
   10       -5.034115   1.000000
   11       -4.628299   1.000000
   12       -4.609489   1.000000
   13       -3.559201   1.000000
   14       -3.500188   1.000000
   15       -2.786701   1.000000
   16       -2.765215   1.000000
   17       -2.103251   1.000000
   18       -2.006147   1.000000
   19        0.566726   0.000000
   20        0.633646   0.000000
   21        1.181197   0.000000
   22        1.188584   0.000000
   23        1.550600   0.000000
   24        1.579753   0.000000
   25        2.906541   0.000000
   26        2.914164   0.000000
 
  0.5000000E+00  0.1666667E+00  0.0000000E+00  0.6944444E-02
    1      -13.561965   1.000000
    2      -13.542844   1.000000
    3      -13.337973   1.000000
    4      -13.335696   1.000000
    5       -6.602847   1.000000
    6       -6.593868   1.000000
    7       -6.183666   1.000000
    8       -6.174849   1.000000
    9       -5.143702   1.000000
   10       -5.142429   1.000000
   11       -4.549083   1.000000
   12       -4.532170   1.000000
   13       -3.692104   1.000000
   14       -3.642909   1.000000
   15       -3.160547   1.000000
   16       -3.149841   1.000000
   17       -1.858116   1.000000
   18       -1.751256   1.000000
   19        0.795984   0.000000
   20        0.811837   0.000000
   21        1.352218   0.000000
   22        1.459409   0.000000
   23        1.855503   0.000000
   24        1.862142   0.000000
   25        2.960167   0.000000
   26        2.991548   0.000000
 
 -0.4166667E+00  0.1666667E+00  0.0000000E+00  0.6944444E-02
    1      -13.421032   1.000000
    2      -13.399304   1.000000
    3      -13.268074   1.000000
    4      -13.265603   1.000000
    5       -6.698038   1.000000
    6       -6.679758   1.000000
    7       -6.381819   1.000000
    8       -6.374947   1.000000
    9       -5.258624   1.000000
   10       -5.253704   1.000000
   11       -4.476139   1.000000
   12       -4.457968   1.000000
   13       -3.693680   1.000000
   14       -3.647519   1.000000
   15       -3.340596   1.000000
   16       -3.335423   1.000000
   17       -1.691019   1.000000
   18       -1.578514   1.000000
   19        0.764834   0.000000
   20        0.809303   0.000000
   21        1.544202   0.000000
   22        1.691076   0.000000
   23        1.969214   0.000000
   24        1.994340   0.000000
   25        2.947130   0.000000
   26        2.999410   0.000000
 
 -0.3333333E+00  0.1666667E+00  0.0000000E+00  0.6944444E-02
    1      -13.561966   1.000000
    2      -13.542845   1.000000
    3      -13.337972   1.000000
    4      -13.335695   1.000000
    5       -6.602848   1.000000
    6       -6.593869   1.000000
    7       -6.183669   1.000000
    8       -6.174852   1.000000
    9       -5.143701   1.000000
   10       -5.142428   1.000000
   11       -4.549081   1.000000
   12       -4.532168   1.000000
   13       -3.692105   1.000000
   14       -3.642910   1.000000
   15       -3.160547   1.000000
   16       -3.149841   1.000000
   17       -1.858117   1.000000
   18       -1.751258   1.000000
   19        0.795983   0.000000
   20        0.811836   0.000000
   21        1.352221   0.000000
   22        1.459411   0.000000
   23        1.855501   0.000000
   24        1.862140   0.000000
   25        2.960169   0.000000
   26        2.991555   0.000000
 
 -0.2500000E+00  0.1666667E+00  0.0000000E+00  0.6944444E-02
    1      -13.917158   1.000000
    2      -13.903924   1.000000
    3      -13.516002   1.000000
    4      -13.514322   1.000000
    5       -6.370848   1.000000
    6       -6.363104   1.000000
    7       -5.641899   1.000000
    8       -5.626759   1.000000
    9       -5.043725   1.000000
   10       -5.034116   1.000000
   11       -4.628297   1.000000
   12       -4.609486   1.000000
   13       -3.559199   1.000000
   14       -3.500186   1.000000
   15       -2.786701   1.000000
   16       -2.765215   1.000000
   17       -2.103253   1.000000
   18       -2.006149   1.000000
   19        0.566724   0.000000
   20        0.633644   0.000000
   21        1.181201   0.000000
   22        1.188588   0.000000
   23        1.550597   0.000000
   24        1.579750   0.000000
   25        2.906543   0.000000
   26        2.914167   0.000000
 
 -0.1666667E+00  0.1666667E+00  0.0000000E+00  0.6944444E-02
    1      -14.348246   1.000000
    2      -14.340992   1.000000
    3      -13.734381   1.000000
    4      -13.733418   1.000000
    5       -6.172958   1.000000
    6       -6.158587   1.000000
    7       -5.108632   1.000000
    8       -5.103295   1.000000
    9       -4.949350   1.000000
   10       -4.920536   1.000000
   11       -4.502055   1.000000
   12       -4.475523   1.000000
   13       -3.247825   1.000000
   14       -3.179083   1.000000
   15       -2.476586   1.000000
   16       -2.441747   1.000000
   17       -2.185397   1.000000
   18       -2.108415   1.000000
   19        0.417400   0.000000
   20        0.482476   0.000000
   21        1.050158   0.000000
   22        1.063419   0.000000
   23        1.246518   0.000000
   24        1.303850   0.000000
   25        2.672038   0.000000
   26        2.709512   0.000000
 
 -0.8333333E-01  0.1666667E+00  0.0000000E+00  0.6944444E-02
    1      -14.733496   1.000000
    2      -14.730772   1.000000
    3      -13.930603   1.000000
    4      -13.930233   1.000000
    5       -6.270866   1.000000
    6       -6.265438   1.000000
    7       -4.916204   1.000000
    8       -4.911318   1.000000
    9       -4.546291   1.000000
   10       -4.538134   1.000000
   11       -3.826623   1.000000
   12       -3.825441   1.000000
   13       -3.204084   1.000000
   14       -3.167471   1.000000
   15       -2.421480   1.000000
   16       -2.389918   1.000000
   17       -1.997410   1.000000
   18       -1.969738   1.000000
   19        0.602423   0.000000
   20        0.624882   0.000000
   21        1.035613   0.000000
   22        1.041887   0.000000
   23        1.153193   0.000000
   24        1.219988   0.000000
   25        2.288258   0.000000
   26        2.334322   0.000000
 
  0.0000000E+00  0.2500000E+00  0.0000000E+00  0.6944444E-02
    1      -14.571836   1.000000
    2      -14.571836   1.000000
    3      -13.850604   1.000000
    4      -13.850604   1.000000
    5       -6.240511   1.000000
    6       -6.240511   1.000000
    7       -5.079088   1.000000
    8       -5.079088   1.000000
    9       -4.878416   1.000000
   10       -4.878416   1.000000
   11       -3.692782   1.000000
   12       -3.692781   1.000000
   13       -2.971475   1.000000
   14       -2.971475   1.000000
   15       -2.754570   1.000000
   16       -2.754570   1.000000
   17       -2.146269   1.000000
   18       -2.146269   1.000000
   19        0.672109   0.000000
   20        0.672110   0.000000
   21        0.947940   0.000000
   22        0.947941   0.000000
   23        1.499709   0.000000
   24        1.499709   0.000000
   25        2.339988   0.000000
   26        2.339991   0.000000
 
  0.8333333E-01  0.2500000E+00  0.0000000E+00  0.6944444E-02
    1      -14.733496   1.000000
    2      -14.730772   1.000000
    3      -13.930604   1.000000
    4      -13.930234   1.000000
    5       -6.270865   1.000000
    6       -6.265438   1.000000
    7       -4.916201   1.000000
    8       -4.911316   1.000000
    9       -4.546293   1.000000
   10       -4.538136   1.000000
   11       -3.826619   1.000000
   12       -3.825438   1.000000
   13       -3.204088   1.000000
   14       -3.167475   1.000000
   15       -2.421481   1.000000
   16       -2.389919   1.000000
   17       -1.997410   1.000000
   18       -1.969738   1.000000
   19        0.602429   0.000000
   20        0.624886   0.000000
   21        1.035609   0.000000
   22        1.041883   0.000000
   23        1.153197   0.000000
   24        1.219992   0.000000
   25        2.288251   0.000000
   26        2.334316   0.000000
 
  0.1666667E+00  0.2500000E+00  0.0000000E+00  0.6944444E-02
    1      -14.733496   1.000000
    2      -14.730771   1.000000
    3      -13.930604   1.000000
    4      -13.930234   1.000000
    5       -6.270864   1.000000
    6       -6.265437   1.000000
    7       -4.916200   1.000000
    8       -4.911315   1.000000
    9       -4.546294   1.000000
   10       -4.538138   1.000000
   11       -3.826616   1.000000
   12       -3.825435   1.000000
   13       -3.204089   1.000000
   14       -3.167476   1.000000
   15       -2.421479   1.000000
   16       -2.389917   1.000000
   17       -1.997411   1.000000
   18       -1.969739   1.000000
   19        0.602428   0.000000
   20        0.624886   0.000000
   21        1.035610   0.000000
   22        1.041884   0.000000
   23        1.153196   0.000000
   24        1.219991   0.000000
   25        2.288252   0.000000
   26        2.334315   0.000000
 
  0.2500000E+00  0.2500000E+00  0.0000000E+00  0.6944444E-02
    1      -14.571836   1.000000
    2      -14.571836   1.000000
    3      -13.850605   1.000000
    4      -13.850605   1.000000
    5       -6.240509   1.000000
    6       -6.240509   1.000000
    7       -5.079086   1.000000
    8       -5.079086   1.000000
    9       -4.878417   1.000000
   10       -4.878417   1.000000
   11       -3.692777   1.000000
   12       -3.692777   1.000000
   13       -2.971477   1.000000
   14       -2.971477   1.000000
   15       -2.754568   1.000000
   16       -2.754568   1.000000
   17       -2.146270   1.000000
   18       -2.146270   1.000000
   19        0.672110   0.000000
   20        0.672110   0.000000
   21        0.947940   0.000000
   22        0.947940   0.000000
   23        1.499709   0.000000
   24        1.499710   0.000000
   25        2.339985   0.000000
   26        2.339988   0.000000
 
  0.3333333E+00  0.2500000E+00  0.0000000E+00  0.6944444E-02
    1      -14.281199   1.000000
    2      -14.275767   1.000000
    3      -13.703475   1.000000
    4      -13.702760   1.000000
    5       -6.271209   1.000000
    6       -6.262836   1.000000
    7       -5.205995   1.000000
    8       -5.197434   1.000000
    9       -5.155210   1.000000
   10       -5.150286   1.000000
   11       -4.209614   1.000000
   12       -4.202864   1.000000
   13       -3.019228   1.000000
   14       -2.955422   1.000000
   15       -2.734595   1.000000
   16       -2.709045   1.000000
   17       -2.243122   1.000000
   18       -2.172633   1.000000
   19        0.539601   0.000000
   20        0.596543   0.000000
   21        0.991925   0.000000
   22        1.012723   0.000000
   23        1.533499   0.000000
   24        1.582290   0.000000
   25        2.614259   0.000000
   26        2.649769   0.000000
 
  0.4166667E+00  0.2500000E+00  0.0000000E+00  0.6944444E-02
    1      -13.917157   1.000000
    2      -13.903923   1.000000
    3      -13.516004   1.000000
    4      -13.514324   1.000000
    5       -6.370847   1.000000
    6       -6.363103   1.000000
    7       -5.641893   1.000000
    8       -5.626754   1.000000
    9       -5.043723   1.000000
   10       -5.034113   1.000000
   11       -4.628298   1.000000
   12       -4.609488   1.000000
   13       -3.559202   1.000000
   14       -3.500189   1.000000
   15       -2.786702   1.000000
   16       -2.765216   1.000000
   17       -2.103251   1.000000
   18       -2.006147   1.000000
   19        0.566726   0.000000
   20        0.633646   0.000000
   21        1.181198   0.000000
   22        1.188584   0.000000
   23        1.550600   0.000000
   24        1.579753   0.000000
   25        2.906538   0.000000
   26        2.914162   0.000000
 
  0.5000000E+00  0.2500000E+00  0.0000000E+00  0.6944444E-02
    1      -13.571697   1.000000
    2      -13.549767   1.000000
    3      -13.334174   1.000000
    4      -13.331532   1.000000
    5       -6.397020   1.000000
    6       -6.392649   1.000000
    7       -6.185966   1.000000
    8       -6.174835   1.000000
    9       -4.926148   1.000000
   10       -4.916242   1.000000
   11       -4.615436   1.000000
   12       -4.594962   1.000000
   13       -4.244422   1.000000
   14       -4.203265   1.000000
   15       -3.081732   1.000000
   16       -3.072246   1.000000
   17       -1.880139   1.000000
   18       -1.769473   1.000000
   19        0.752165   0.000000
   20        0.753432   0.000000
   21        1.384193   0.000000
   22        1.488962   0.000000
   23        1.606795   0.000000
   24        1.618737   0.000000
   25        3.106748   0.000000
   26        3.146582   0.000000
 
 -0.4166667E+00  0.2500000E+00  0.0000000E+00  0.6944444E-02
    1      -13.356697   1.000000
    2      -13.328650   1.000000
    3      -13.218707   1.000000
    4      -13.215541   1.000000
    5       -6.529635   1.000000
    6       -6.521733   1.000000
    7       -6.303927   1.000000
    8       -6.281489   1.000000
    9       -5.131145   1.000000
   10       -5.122055   1.000000
   11       -4.553677   1.000000
   12       -4.520945   1.000000
   13       -4.436528   1.000000
   14       -4.398950   1.000000
   15       -3.417583   1.000000
   16       -3.412127   1.000000
   17       -1.590511   1.000000
   18       -1.462638   1.000000
   19        0.587952   0.000000
   20        0.606384   0.000000
   21        1.606844   0.000000
   22        1.620611   0.000000
   23        1.782828   0.000000
   24        1.910913   0.000000
   25        3.247939   0.000000
   26        3.317654   0.000000
 
 -0.3333333E+00  0.2500000E+00  0.0000000E+00  0.6944444E-02
    1      -13.356697   1.000000
    2      -13.328650   1.000000
    3      -13.218706   1.000000
    4      -13.215540   1.000000
    5       -6.529637   1.000000
    6       -6.521735   1.000000
    7       -6.303928   1.000000
    8       -6.281490   1.000000
    9       -5.131142   1.000000
   10       -5.122052   1.000000
   11       -4.553679   1.000000
   12       -4.520947   1.000000
   13       -4.436528   1.000000
   14       -4.398950   1.000000
   15       -3.417582   1.000000
   16       -3.412126   1.000000
   17       -1.590512   1.000000
   18       -1.462639   1.000000
   19        0.587953   0.000000
   20        0.606384   0.000000
   21        1.606843   0.000000
   22        1.620610   0.000000
   23        1.782829   0.000000
   24        1.910914   0.000000
   25        3.247939   0.000000
   26        3.317655   0.000000
 
 -0.2500000E+00  0.2500000E+00  0.0000000E+00  0.6944444E-02
    1      -13.571697   1.000000
    2      -13.549768   1.000000
    3      -13.334172   1.000000
    4      -13.331531   1.000000
    5       -6.397021   1.000000
    6       -6.392650   1.000000
    7       -6.185971   1.000000
    8       -6.174840   1.000000
    9       -4.926146   1.000000
   10       -4.916241   1.000000
   11       -4.615435   1.000000
   12       -4.594961   1.000000
   13       -4.244423   1.000000
   14       -4.203266   1.000000
   15       -3.081731   1.000000
   16       -3.072244   1.000000
   17       -1.880142   1.000000
   18       -1.769475   1.000000
   19        0.752165   0.000000
   20        0.753432   0.000000
   21        1.384196   0.000000
   22        1.488964   0.000000
   23        1.606793   0.000000
   24        1.618734   0.000000
   25        3.106750   0.000000
   26        3.146584   0.000000
 
 -0.1666667E+00  0.2500000E+00  0.0000000E+00  0.6944444E-02
    1      -13.917158   1.000000
    2      -13.903924   1.000000
    3      -13.516002   1.000000
    4      -13.514322   1.000000
    5       -6.370848   1.000000
    6       -6.363104   1.000000
    7       -5.641899   1.000000
    8       -5.626759   1.000000
    9       -5.043725   1.000000
   10       -5.034116   1.000000
   11       -4.628297   1.000000
   12       -4.609486   1.000000
   13       -3.559199   1.000000
   14       -3.500186   1.000000
   15       -2.786701   1.000000
   16       -2.765215   1.000000
   17       -2.103253   1.000000
   18       -2.006149   1.000000
   19        0.566724   0.000000
   20        0.633644   0.000000
   21        1.181201   0.000000
   22        1.188588   0.000000
   23        1.550597   0.000000
   24        1.579750   0.000000
   25        2.906544   0.000000
   26        2.914168   0.000000
 
 -0.8333333E-01  0.2500000E+00  0.0000000E+00  0.6944444E-02
    1      -14.281200   1.000000
    2      -14.275768   1.000000
    3      -13.703474   1.000000
    4      -13.702759   1.000000
    5       -6.271211   1.000000
    6       -6.262837   1.000000
    7       -5.205998   1.000000
    8       -5.197436   1.000000
    9       -5.155212   1.000000
   10       -5.150289   1.000000
   11       -4.209616   1.000000
   12       -4.202867   1.000000
   13       -3.019224   1.000000
   14       -2.955418   1.000000
   15       -2.734595   1.000000
   16       -2.709046   1.000000
   17       -2.243121   1.000000
   18       -2.172632   1.000000
   19        0.539596   0.000000
   20        0.596539   0.000000
   21        0.991928   0.000000
   22        1.012726   0.000000
   23        1.533496   0.000000
   24        1.582287   0.000000
   25        2.614245   0.000000
   26        2.649704   0.000000
 
  0.0000000E+00  0.3333333E+00  0.0000000E+00  0.6944444E-02
    1      -14.093200   1.000000
    2      -14.093200   1.000000
    3      -13.614975   1.000000
    4      -13.614975   1.000000
    5       -6.481499   1.000000
    6       -6.481499   1.000000
    7       -5.513427   1.000000
    8       -5.513427   1.000000
    9       -5.218968   1.000000
   10       -5.218968   1.000000
   11       -4.059608   1.000000
   12       -4.059608   1.000000
   13       -3.079110   1.000000
   14       -3.079110   1.000000
   15       -2.566419   1.000000
   16       -2.566418   1.000000
   17       -2.351521   1.000000
   18       -2.351519   1.000000
   19        0.797425   0.000000
   20        0.797427   0.000000
   21        0.885740   0.000000
   22        0.885742   0.000000
   23        1.975803   0.000000
   24        1.975804   0.000000
   25        2.606981   0.000000
   26        2.607014   0.000000
 
  0.8333333E-01  0.3333333E+00  0.0000000E+00  0.6944444E-02
    1      -14.281200   1.000000
    2      -14.275768   1.000000
    3      -13.703474   1.000000
    4      -13.702759   1.000000
    5       -6.271210   1.000000
    6       -6.262837   1.000000
    7       -5.205996   1.000000
    8       -5.197434   1.000000
    9       -5.155211   1.000000
   10       -5.150287   1.000000
   11       -4.209617   1.000000
   12       -4.202867   1.000000
   13       -3.019226   1.000000
   14       -2.955420   1.000000
   15       -2.734595   1.000000
   16       -2.709046   1.000000
   17       -2.243121   1.000000
   18       -2.172632   1.000000
   19        0.539601   0.000000
   20        0.596544   0.000000
   21        0.991923   0.000000
   22        1.012721   0.000000
   23        1.533500   0.000000
   24        1.582291   0.000000
   25        2.614239   0.000000
   26        2.649700   0.000000
 
  0.1666667E+00  0.3333333E+00  0.0000000E+00  0.6944444E-02
    1      -14.348246   1.000000
    2      -14.340991   1.000000
    3      -13.734382   1.000000
    4      -13.733419   1.000000
    5       -6.172957   1.000000
    6       -6.158586   1.000000
    7       -5.108629   1.000000
    8       -5.103292   1.000000
    9       -4.949347   1.000000
   10       -4.920534   1.000000
   11       -4.502055   1.000000
   12       -4.475523   1.000000
   13       -3.247830   1.000000
   14       -3.179087   1.000000
   15       -2.476586   1.000000
   16       -2.441747   1.000000
   17       -2.185397   1.000000
   18       -2.108415   1.000000
   19        0.417405   0.000000
   20        0.482480   0.000000
   21        1.050153   0.000000
   22        1.063415   0.000000
   23        1.246522   0.000000
   24        1.303854   0.000000
   25        2.672032   0.000000
   26        2.709506   0.000000
 
  0.2500000E+00  0.3333333E+00  0.0000000E+00  0.6944444E-02
    1      -14.281199   1.000000
    2      -14.275767   1.000000
    3      -13.703475   1.000000
    4      -13.702760   1.000000
    5       -6.271209   1.000000
    6       -6.262836   1.000000
    7       -5.205995   1.000000
    8       -5.197434   1.000000
    9       -5.155210   1.000000
   10       -5.150286   1.000000
   11       -4.209614   1.000000
   12       -4.202865   1.000000
   13       -3.019228   1.000000
   14       -2.955422   1.000000
   15       -2.734595   1.000000
   16       -2.709045   1.000000
   17       -2.243122   1.000000
   18       -2.172633   1.000000
   19        0.539601   0.000000
   20        0.596543   0.000000
   21        0.991925   0.000000
   22        1.012723   0.000000
   23        1.533499   0.000000
   24        1.582290   0.000000
   25        2.614239   0.000000
   26        2.649699   0.000000
 
  0.3333333E+00  0.3333333E+00  0.0000000E+00  0.6944444E-02
    1      -14.093199   1.000000
    2      -14.093199   1.000000
    3      -13.614977   1.000000
    4      -13.614977   1.000000
    5       -6.481499   1.000000
    6       -6.481499   1.000000
    7       -5.513424   1.000000
    8       -5.513424   1.000000
    9       -5.218964   1.000000
   10       -5.218964   1.000000
   11       -4.059604   1.000000
   12       -4.059604   1.000000
   13       -3.079111   1.000000
   14       -3.079111   1.000000
   15       -2.566420   1.000000
   16       -2.566420   1.000000
   17       -2.351522   1.000000
   18       -2.351522   1.000000
   19        0.797426   0.000000
   20        0.797426   0.000000
   21        0.885742   0.000000
   22        0.885742   0.000000
   23        1.975803   0.000000
   24        1.975803   0.000000
   25        2.606979   0.000000
   26        2.606979   0.000000
 
  0.4166667E+00  0.3333333E+00  0.0000000E+00  0.6944444E-02
    1      -13.833391   1.000000
    2      -13.824717   1.000000
    3      -13.484175   1.000000
    4      -13.483096   1.000000
    5       -6.637884   1.000000
    6       -6.637731   1.000000
    7       -5.812600   1.000000
    8       -5.806330   1.000000
    9       -5.207803   1.000000
   10       -5.205922   1.000000
   11       -4.378787   1.000000
   12       -4.371676   1.000000
   13       -3.080079   1.000000
   14       -3.075263   1.000000
   15       -2.927332   1.000000
   16       -2.874847   1.000000
   17       -2.102682   1.000000
   18       -2.014917   1.000000
   19        0.722785   0.000000
   20        0.760169   0.000000
   21        1.125166   0.000000
   22        1.136184   0.000000
   23        2.002870   0.000000
   24        2.034723   0.000000
   25        2.755477   0.000000
   26        2.775598   0.000000
 
  0.5000000E+00  0.3333333E+00  0.0000000E+00  0.6944444E-02
    1      -13.561964   1.000000
    2      -13.542843   1.000000
    3      -13.337975   1.000000
    4      -13.335698   1.000000
    5       -6.602848   1.000000
    6       -6.593869   1.000000
    7       -6.183663   1.000000
    8       -6.174846   1.000000
    9       -5.143698   1.000000
   10       -5.142425   1.000000
   11       -4.549081   1.000000
   12       -4.532168   1.000000
   13       -3.692106   1.000000
   14       -3.642911   1.000000
   15       -3.160550   1.000000
   16       -3.149845   1.000000
   17       -1.858116   1.000000
   18       -1.751256   1.000000
   19        0.795982   0.000000
   20        0.811835   0.000000
   21        1.352219   0.000000
   22        1.459409   0.000000
   23        1.855504   0.000000
   24        1.862143   0.000000
   25        2.960168   0.000000
   26        2.991550   0.000000
 
 -0.4166667E+00  0.3333333E+00  0.0000000E+00  0.6944444E-02
    1      -13.356696   1.000000
    2      -13.328649   1.000000
    3      -13.218707   1.000000
    4      -13.215541   1.000000
    5       -6.529633   1.000000
    6       -6.521731   1.000000
    7       -6.303928   1.000000
    8       -6.281490   1.000000
    9       -5.131142   1.000000
   10       -5.122052   1.000000
   11       -4.553679   1.000000
   12       -4.520946   1.000000
   13       -4.436527   1.000000
   14       -4.398949   1.000000
   15       -3.417586   1.000000
   16       -3.412130   1.000000
   17       -1.590510   1.000000
   18       -1.462637   1.000000
   19        0.587951   0.000000
   20        0.606382   0.000000
   21        1.606845   0.000000
   22        1.620611   0.000000
   23        1.782828   0.000000
   24        1.910913   0.000000
   25        3.247939   0.000000
   26        3.317654   0.000000
 
 -0.3333333E+00  0.3333333E+00  0.0000000E+00  0.6944444E-02
    1      -13.280378   1.000000
    2      -13.248820   1.000000
    3      -13.171942   1.000000
    4      -13.168503   1.000000
    5       -6.667617   1.000000
    6       -6.660502   1.000000
    7       -5.922758   1.000000
    8       -5.887510   1.000000
    9       -5.402309   1.000000
   10       -5.370968   1.000000
   11       -4.874935   1.000000
   12       -4.867614   1.000000
   13       -4.305112   1.000000
   14       -4.255948   1.000000
   15       -3.613838   1.000000
   16       -3.590026   1.000000
   17       -1.421984   1.000000
   18       -1.274874   1.000000
   19        0.398676   0.000000
   20        0.400895   0.000000
   21        1.499665   0.000000
   22        1.530296   0.000000
   23        1.995233   0.000000
   24        2.138172   0.000000
   25        3.393590   0.000000
   26        3.474605   0.000000
 
 -0.2500000E+00  0.3333333E+00  0.0000000E+00  0.6944444E-02
    1      -13.356697   1.000000
    2      -13.328650   1.000000
    3      -13.218706   1.000000
    4      -13.215540   1.000000
    5       -6.529637   1.000000
    6       -6.521735   1.000000
    7       -6.303928   1.000000
    8       -6.281490   1.000000
    9       -5.131142   1.000000
   10       -5.122052   1.000000
   11       -4.553679   1.000000
   12       -4.520947   1.000000
   13       -4.436528   1.000000
   14       -4.398950   1.000000
   15       -3.417582   1.000000
   16       -3.412126   1.000000
   17       -1.590512   1.000000
   18       -1.462639   1.000000
   19        0.587953   0.000000
   20        0.606384   0.000000
   21        1.606843   0.000000
   22        1.620610   0.000000
   23        1.782829   0.000000
   24        1.910914   0.000000
   25        3.247940   0.000000
   26        3.317655   0.000000
 
 -0.1666667E+00  0.3333333E+00  0.0000000E+00  0.6944444E-02
    1      -13.561966   1.000000
    2      -13.542845   1.000000
    3      -13.337972   1.000000
    4      -13.335695   1.000000
    5       -6.602848   1.000000
    6       -6.593869   1.000000
    7       -6.183669   1.000000
    8       -6.174852   1.000000
    9       -5.143701   1.000000
   10       -5.142428   1.000000
   11       -4.549081   1.000000
   12       -4.532168   1.000000
   13       -3.692105   1.000000
   14       -3.642910   1.000000
   15       -3.160547   1.000000
   16       -3.149841   1.000000
   17       -1.858117   1.000000
   18       -1.751258   1.000000
   19        0.795983   0.000000
   20        0.811836   0.000000
   21        1.352221   0.000000
   22        1.459411   0.000000
   23        1.855501   0.000000
   24        1.862140   0.000000
   25        2.960169   0.000000
   26        2.991551   0.000000
 
 -0.8333333E-01  0.3333333E+00  0.0000000E+00  0.6944444E-02
    1      -13.833393   1.000000
    2      -13.824719   1.000000
    3      -13.484172   1.000000
    4      -13.483093   1.000000
    5       -6.637884   1.000000
    6       -6.637731   1.000000
    7       -5.812606   1.000000
    8       -5.806336   1.000000
    9       -5.207807   1.000000
   10       -5.205926   1.000000
   11       -4.378788   1.000000
   12       -4.371677   1.000000
   13       -3.080077   1.000000
   14       -3.075261   1.000000
   15       -2.927330   1.000000
   16       -2.874845   1.000000
   17       -2.102682   1.000000
   18       -2.014917   1.000000
   19        0.722784   0.000000
   20        0.760168   0.000000
   21        1.125168   0.000000
   22        1.136185   0.000000
   23        2.002867   0.000000
   24        2.034721   0.000000
   25        2.755479   0.000000
   26        2.775600   0.000000
 
  0.0000000E+00  0.4166667E+00  0.0000000E+00  0.6944444E-02
    1      -13.690011   1.000000
    2      -13.690011   1.000000
    3      -13.423623   1.000000
    4      -13.423623   1.000000
    5       -6.895075   1.000000
    6       -6.895075   1.000000
    7       -5.988379   1.000000
    8       -5.988379   1.000000
    9       -5.312065   1.000000
   10       -5.312065   1.000000
   11       -4.297828   1.000000
   12       -4.297828   1.000000
   13       -3.273887   1.000000
   14       -3.273887   1.000000
   15       -2.301114   1.000000
   16       -2.301113   1.000000
   17       -2.169466   1.000000
   18       -2.169465   1.000000
   19        0.838168   0.000000
   20        0.838168   0.000000
   21        1.177703   0.000000
   22        1.177703   0.000000
   23        2.345837   0.000000
   24        2.345838   0.000000
   25        2.749800   0.000000
   26        2.749801   0.000000
 
  0.8333333E-01  0.4166667E+00  0.0000000E+00  0.6944444E-02
    1      -13.833393   1.000000
    2      -13.824718   1.000000
    3      -13.484173   1.000000
    4      -13.483094   1.000000
    5       -6.637883   1.000000
    6       -6.637731   1.000000
    7       -5.812603   1.000000
    8       -5.806334   1.000000
    9       -5.207808   1.000000
   10       -5.205926   1.000000
   11       -4.378789   1.000000
   12       -4.371679   1.000000
   13       -3.080076   1.000000
   14       -3.075260   1.000000
   15       -2.927330   1.000000
   16       -2.874844   1.000000
   17       -2.102682   1.000000
   18       -2.014916   1.000000
   19        0.722786   0.000000
   20        0.760170   0.000000
   21        1.125164   0.000000
   22        1.136182   0.000000
   23        2.002870   0.000000
   24        2.034723   0.000000
   25        2.755476   0.000000
   26        2.775597   0.000000
 
  0.1666667E+00  0.4166667E+00  0.0000000E+00  0.6944444E-02
    1      -13.917158   1.000000
    2      -13.903923   1.000000
    3      -13.516004   1.000000
    4      -13.514323   1.000000
    5       -6.370847   1.000000
    6       -6.363103   1.000000
    7       -5.641894   1.000000
    8       -5.626755   1.000000
    9       -5.043725   1.000000
   10       -5.034115   1.000000
   11       -4.628299   1.000000
   12       -4.609489   1.000000
   13       -3.559201   1.000000
   14       -3.500188   1.000000
   15       -2.786701   1.000000
   16       -2.765215   1.000000
   17       -2.103251   1.000000
   18       -2.006147   1.000000
   19        0.566726   0.000000
   20        0.633646   0.000000
   21        1.181197   0.000000
   22        1.188584   0.000000
   23        1.550600   0.000000
   24        1.579753   0.000000
   25        2.906538   0.000000
   26        2.914165   0.000000
 
  0.2500000E+00  0.4166667E+00  0.0000000E+00  0.6944444E-02
    1      -13.917157   1.000000
    2      -13.903923   1.000000
    3      -13.516004   1.000000
    4      -13.514324   1.000000
    5       -6.370847   1.000000
    6       -6.363103   1.000000
    7       -5.641893   1.000000
    8       -5.626754   1.000000
    9       -5.043723   1.000000
   10       -5.034113   1.000000
   11       -4.628298   1.000000
   12       -4.609488   1.000000
   13       -3.559202   1.000000
   14       -3.500189   1.000000
   15       -2.786702   1.000000
   16       -2.765216   1.000000
   17       -2.103251   1.000000
   18       -2.006147   1.000000
   19        0.566726   0.000000
   20        0.633646   0.000000
   21        1.181198   0.000000
   22        1.188584   0.000000
   23        1.550600   0.000000
   24        1.579753   0.000000
   25        2.906544   0.000000
   26        2.914173   0.000000
 
  0.3333333E+00  0.4166667E+00  0.0000000E+00  0.6944444E-02
    1      -13.833391   1.000000
    2      -13.824717   1.000000
    3      -13.484175   1.000000
    4      -13.483096   1.000000
    5       -6.637884   1.000000
    6       -6.637731   1.000000
    7       -5.812600   1.000000
    8       -5.806330   1.000000
    9       -5.207803   1.000000
   10       -5.205922   1.000000
   11       -4.378787   1.000000
   12       -4.371676   1.000000
   13       -3.080079   1.000000
   14       -3.075263   1.000000
   15       -2.927332   1.000000
   16       -2.874847   1.000000
   17       -2.102682   1.000000
   18       -2.014917   1.000000
   19        0.722785   0.000000
   20        0.760169   0.000000
   21        1.125166   0.000000
   22        1.136184   0.000000
   23        2.002870   0.000000
   24        2.034724   0.000000
   25        2.755482   0.000000
   26        2.775600   0.000000
 
  0.4166667E+00  0.4166667E+00  0.0000000E+00  0.6944444E-02
    1      -13.690009   1.000000
    2      -13.690009   1.000000
    3      -13.423626   1.000000
    4      -13.423626   1.000000
    5       -6.895076   1.000000
    6       -6.895076   1.000000
    7       -5.988374   1.000000
    8       -5.988374   1.000000
    9       -5.312060   1.000000
   10       -5.312060   1.000000
   11       -4.297825   1.000000
   12       -4.297825   1.000000
   13       -3.273891   1.000000
   14       -3.273891   1.000000
   15       -2.301115   1.000000
   16       -2.301115   1.000000
   17       -2.169467   1.000000
   18       -2.169467   1.000000
   19        0.838167   0.000000
   20        0.838167   0.000000
   21        1.177704   0.000000
   22        1.177704   0.000000
   23        2.345839   0.000000
   24        2.345840   0.000000
   25        2.749800   0.000000
   26        2.749801   0.000000
 
  0.5000000E+00  0.4166667E+00  0.0000000E+00  0.6944444E-02
    1      -13.541111   1.000000
    2      -13.529918   1.000000
    3      -13.345413   1.000000
    4      -13.344112   1.000000
    5       -6.936708   1.000000
    6       -6.928684   1.000000
    7       -6.174519   1.000000
    8       -6.170063   1.000000
    9       -5.323100   1.000000
   10       -5.319998   1.000000
   11       -4.430444   1.000000
   12       -4.423173   1.000000
   13       -3.292228   1.000000
   14       -3.285001   1.000000
   15       -2.817697   1.000000
   16       -2.758897   1.000000
   17       -1.873303   1.000000
   18       -1.778701   1.000000
   19        0.859459   0.000000
   20        0.894951   0.000000
   21        1.310082   0.000000
   22        1.403097   0.000000
   23        2.383826   0.000000
   24        2.399101   0.000000
   25        2.692229   0.000000
   26        2.695545   0.000000
 
 -0.4166667E+00  0.4166667E+00  0.0000000E+00  0.6944444E-02
    1      -13.421030   1.000000
    2      -13.399302   1.000000
    3      -13.268076   1.000000
    4      -13.265605   1.000000
    5       -6.698039   1.000000
    6       -6.679760   1.000000
    7       -6.381814   1.000000
    8       -6.374942   1.000000
    9       -5.258619   1.000000
   10       -5.253700   1.000000
   11       -4.476137   1.000000
   12       -4.457966   1.000000
   13       -3.693681   1.000000
   14       -3.647520   1.000000
   15       -3.340601   1.000000
   16       -3.335428   1.000000
   17       -1.691018   1.000000
   18       -1.578513   1.000000
   19        0.764832   0.000000
   20        0.809301   0.000000
   21        1.544202   0.000000
   22        1.691075   0.000000
   23        1.969216   0.000000
   24        1.994341   0.000000
   25        2.947132   0.000000
   26        2.999413   0.000000
 
 -0.3333333E+00  0.4166667E+00  0.0000000E+00  0.6944444E-02
    1      -13.356696   1.000000
    2      -13.328649   1.000000
    3      -13.218707   1.000000
    4      -13.215541   1.000000
    5       -6.529633   1.000000
    6       -6.521731   1.000000
    7       -6.303928   1.000000
    8       -6.281490   1.000000
    9       -5.131142   1.000000
   10       -5.122052   1.000000
   11       -4.553679   1.000000
   12       -4.520946   1.000000
   13       -4.436527   1.000000
   14       -4.398949   1.000000
   15       -3.417586   1.000000
   16       -3.412130   1.000000
   17       -1.590510   1.000000
   18       -1.462637   1.000000
   19        0.587951   0.000000
   20        0.606382   0.000000
   21        1.606845   0.000000
   22        1.620611   0.000000
   23        1.782828   0.000000
   24        1.910913   0.000000
   25        3.247941   0.000000
   26        3.317654   0.000000
 
 -0.2500000E+00  0.4166667E+00  0.0000000E+00  0.6944444E-02
    1      -13.356697   1.000000
    2      -13.328650   1.000000
    3      -13.218707   1.000000
    4      -13.215541   1.000000
    5       -6.529635   1.000000
    6       -6.521733   1.000000
    7       -6.303927   1.000000
    8       -6.281489   1.000000
    9       -5.131145   1.000000
   10       -5.122055   1.000000
   11       -4.553677   1.000000
   12       -4.520945   1.000000
   13       -4.436528   1.000000
   14       -4.398950   1.000000
   15       -3.417583   1.000000
   16       -3.412127   1.000000
   17       -1.590511   1.000000
   18       -1.462638   1.000000
   19        0.587952   0.000000
   20        0.606384   0.000000
   21        1.606844   0.000000
   22        1.620611   0.000000
   23        1.782828   0.000000
   24        1.910913   0.000000
   25        3.247939   0.000000
   26        3.317653   0.000000
 
 -0.1666667E+00  0.4166667E+00  0.0000000E+00  0.6944444E-02
    1      -13.421032   1.000000
    2      -13.399304   1.000000
    3      -13.268074   1.000000
    4      -13.265603   1.000000
    5       -6.698038   1.000000
    6       -6.679758   1.000000
    7       -6.381819   1.000000
    8       -6.374947   1.000000
    9       -5.258624   1.000000
   10       -5.253704   1.000000
   11       -4.476139   1.000000
   12       -4.457968   1.000000
   13       -3.693680   1.000000
   14       -3.647519   1.000000
   15       -3.340596   1.000000
   16       -3.335423   1.000000
   17       -1.691019   1.000000
   18       -1.578514   1.000000
   19        0.764834   0.000000
   20        0.809303   0.000000
   21        1.544202   0.000000
   22        1.691076   0.000000
   23        1.969214   0.000000
   24        1.994340   0.000000
   25        2.947130   0.000000
   26        2.999412   0.000000
 
 -0.8333333E-01  0.4166667E+00  0.0000000E+00  0.6944444E-02
    1      -13.541112   1.000000
    2      -13.529920   1.000000
    3      -13.345411   1.000000
    4      -13.344109   1.000000
    5       -6.936706   1.000000
    6       -6.928682   1.000000
    7       -6.174526   1.000000
    8       -6.170069   1.000000
    9       -5.323105   1.000000
   10       -5.320003   1.000000
   11       -4.430446   1.000000
   12       -4.423175   1.000000
   13       -3.292224   1.000000
   14       -3.284997   1.000000
   15       -2.817696   1.000000
   16       -2.758896   1.000000
   17       -1.873303   1.000000
   18       -1.778701   1.000000
   19        0.859460   0.000000
   20        0.894952   0.000000
   21        1.310083   0.000000
   22        1.403098   0.000000
   23        2.383823   0.000000
   24        2.399099   0.000000
   25        2.692228   0.000000
   26        2.695542   0.000000
 
  0.0000000E+00  0.5000000E+00  0.0000000E+00  0.6944444E-02
    1      -13.526937   1.000000
    2      -13.526937   1.000000
    3      -13.348717   1.000000
    4      -13.348717   1.000000
    5       -7.074798   1.000000
    6       -7.074798   1.000000
    7       -6.166496   1.000000
    8       -6.166496   1.000000
    9       -5.379520   1.000000
   10       -5.379520   1.000000
   11       -4.379912   1.000000
   12       -4.379912   1.000000
   13       -3.335888   1.000000
   14       -3.335888   1.000000
   15       -2.206134   1.000000
   16       -2.206134   1.000000
   17       -2.014542   1.000000
   18       -2.014542   1.000000
   19        0.879161   0.000000
   20        0.879161   0.000000
   21        1.354046   0.000000
   22        1.354046   0.000000
   23        2.472759   0.000000
   24        2.472759   0.000000
   25        2.793005   0.000000
   26        2.793006   0.000000
 
  0.8333333E-01  0.5000000E+00  0.0000000E+00  0.6944444E-02
    1      -13.541112   1.000000
    2      -13.529920   1.000000
    3      -13.345411   1.000000
    4      -13.344109   1.000000
    5       -6.936706   1.000000
    6       -6.928682   1.000000
    7       -6.174525   1.000000
    8       -6.170068   1.000000
    9       -5.323105   1.000000
   10       -5.320004   1.000000
   11       -4.430447   1.000000
   12       -4.423176   1.000000
   13       -3.292223   1.000000
   14       -3.284996   1.000000
   15       -2.817696   1.000000
   16       -2.758896   1.000000
   17       -1.873302   1.000000
   18       -1.778701   1.000000
   19        0.859461   0.000000
   20        0.894953   0.000000
   21        1.310082   0.000000
   22        1.403097   0.000000
   23        2.383825   0.000000
   24        2.399101   0.000000
   25        2.692228   0.000000
   26        2.695550   0.000000
 
  0.1666667E+00  0.5000000E+00  0.0000000E+00  0.6944444E-02
    1      -13.561965   1.000000
    2      -13.542844   1.000000
    3      -13.337973   1.000000
    4      -13.335696   1.000000
    5       -6.602847   1.000000
    6       -6.593868   1.000000
    7       -6.183666   1.000000
    8       -6.174849   1.000000
    9       -5.143702   1.000000
   10       -5.142429   1.000000
   11       -4.549083   1.000000
   12       -4.532170   1.000000
   13       -3.692104   1.000000
   14       -3.642909   1.000000
   15       -3.160547   1.000000
   16       -3.149841   1.000000
   17       -1.858116   1.000000
   18       -1.751256   1.000000
   19        0.795984   0.000000
   20        0.811837   0.000000
   21        1.352218   0.000000
   22        1.459409   0.000000
   23        1.855503   0.000000
   24        1.862142   0.000000
   25        2.960167   0.000000
   26        2.991549   0.000000
 
  0.2500000E+00  0.5000000E+00  0.0000000E+00  0.6944444E-02
    1      -13.571697   1.000000
    2      -13.549767   1.000000
    3      -13.334174   1.000000
    4      -13.331532   1.000000
    5       -6.397020   1.000000
    6       -6.392649   1.000000
    7       -6.185966   1.000000
    8       -6.174835   1.000000
    9       -4.926148   1.000000
   10       -4.916242   1.000000
   11       -4.615436   1.000000
   12       -4.594962   1.000000
   13       -4.244422   1.000000
   14       -4.203265   1.000000
   15       -3.081732   1.000000
   16       -3.072246   1.000000
   17       -1.880139   1.000000
   18       -1.769473   1.000000
   19        0.752165   0.000000
   20        0.753432   0.000000
   21        1.384193   0.000000
   22        1.488962   0.000000
   23        1.606795   0.000000
   24        1.618737   0.000000
   25        3.106749   0.000000
   26        3.146582   0.000000
 
  0.3333333E+00  0.5000000E+00  0.0000000E+00  0.6944444E-02
    1      -13.561964   1.000000
    2      -13.542843   1.000000
    3      -13.337975   1.000000
    4      -13.335698   1.000000
    5       -6.602848   1.000000
    6       -6.593869   1.000000
    7       -6.183663   1.000000
    8       -6.174846   1.000000
    9       -5.143698   1.000000
   10       -5.142425   1.000000
   11       -4.549081   1.000000
   12       -4.532168   1.000000
   13       -3.692106   1.000000
   14       -3.642911   1.000000
   15       -3.160550   1.000000
   16       -3.149845   1.000000
   17       -1.858116   1.000000
   18       -1.751256   1.000000
   19        0.795982   0.000000
   20        0.811835   0.000000
   21        1.352219   0.000000
   22        1.459409   0.000000
   23        1.855503   0.000000
   24        1.862143   0.000000
   25        2.960168   0.000000
   26        2.991550   0.000000
 
  0.4166667E+00  0.5000000E+00  0.0000000E+00  0.6944444E-02
    1      -13.541111   1.000000
    2      -13.529918   1.000000
    3      -13.345413   1.000000
    4      -13.344112   1.000000
    5       -6.936708   1.000000
    6       -6.928684   1.000000
    7       -6.174519   1.000000
    8       -6.170063   1.000000
    9       -5.323100   1.000000
   10       -5.319998   1.000000
   11       -4.430444   1.000000
   12       -4.423173   1.000000
   13       -3.292228   1.000000
   14       -3.285001   1.000000
   15       -2.817697   1.000000
   16       -2.758897   1.000000
   17       -1.873303   1.000000
   18       -1.778701   1.000000
   19        0.859459   0.000000
   20        0.894951   0.000000
   21        1.310082   0.000000
   22        1.403097   0.000000
   23        2.383829   0.000000
   24        2.399105   0.000000
   25        2.692229   0.000000
   26        2.695546   0.000000
 
  0.5000000E+00  0.5000000E+00  0.0000000E+00  0.6944444E-02
    1      -13.526935   1.000000
    2      -13.526935   1.000000
    3      -13.348720   1.000000
    4      -13.348720   1.000000
    5       -7.074800   1.000000
    6       -7.074800   1.000000
    7       -6.166489   1.000000
    8       -6.166489   1.000000
    9       -5.379514   1.000000
   10       -5.379514   1.000000
   11       -4.379909   1.000000
   12       -4.379909   1.000000
   13       -3.335893   1.000000
   14       -3.335893   1.000000
   15       -2.206134   1.000000
   16       -2.206134   1.000000
   17       -2.014542   1.000000
   18       -2.014542   1.000000
   19        0.879159   0.000000
   20        0.879159   0.000000
   21        1.354046   0.000000
   22        1.354046   0.000000
   23        2.472762   0.000000
   24        2.472762   0.000000
   25        2.793004   0.000000
   26        2.793008   0.000000
 
 -0.4166667E+00  0.5000000E+00  0.0000000E+00  0.6944444E-02
    1      -13.541111   1.000000
    2      -13.529918   1.000000
    3      -13.345413   1.000000
    4      -13.344112   1.000000
    5       -6.936708   1.000000
    6       -6.928684   1.000000
    7       -6.174519   1.000000
    8       -6.170063   1.000000
    9       -5.323100   1.000000
   10       -5.319998   1.000000
   11       -4.430444   1.000000
   12       -4.423173   1.000000
   13       -3.292228   1.000000
   14       -3.285001   1.000000
   15       -2.817697   1.000000
   16       -2.758897   1.000000
   17       -1.873303   1.000000
   18       -1.778701   1.000000
   19        0.859459   0.000000
   20        0.894951   0.000000
   21        1.310082   0.000000
   22        1.403097   0.000000
   23        2.383826   0.000000
   24        2.399101   0.000000
   25        2.692229   0.000000
   26        2.695542   0.000000
 
 -0.3333333E+00  0.5000000E+00  0.0000000E+00  0.6944444E-02
    1      -13.561964   1.000000
    2      -13.542843   1.000000
    3      -13.337975   1.000000
    4      -13.335698   1.000000
    5       -6.602848   1.000000
    6       -6.593869   1.000000
    7       -6.183663   1.000000
    8       -6.174846   1.000000
    9       -5.143698   1.000000
   10       -5.142425   1.000000
   11       -4.549081   1.000000
   12       -4.532168   1.000000
   13       -3.692106   1.000000
   14       -3.642911   1.000000
   15       -3.160550   1.000000
   16       -3.149845   1.000000
   17       -1.858116   1.000000
   18       -1.751256   1.000000
   19        0.795982   0.000000
   20        0.811835   0.000000
   21        1.352219   0.000000
   22        1.459409   0.000000
   23        1.855503   0.000000
   24        1.862143   0.000000
   25        2.960168   0.000000
   26        2.991550   0.000000
 
 -0.2500000E+00  0.5000000E+00  0.0000000E+00  0.6944444E-02
    1      -13.571697   1.000000
    2      -13.549767   1.000000
    3      -13.334174   1.000000
    4      -13.331532   1.000000
    5       -6.397020   1.000000
    6       -6.392649   1.000000
    7       -6.185966   1.000000
    8       -6.174835   1.000000
    9       -4.926148   1.000000
   10       -4.916242   1.000000
   11       -4.615436   1.000000
   12       -4.594962   1.000000
   13       -4.244422   1.000000
   14       -4.203265   1.000000
   15       -3.081732   1.000000
   16       -3.072246   1.000000
   17       -1.880139   1.000000
   18       -1.769473   1.000000
   19        0.752165   0.000000
   20        0.753432   0.000000
   21        1.384193   0.000000
   22        1.488962   0.000000
   23        1.606795   0.000000
   24        1.618737   0.000000
   25        3.106749   0.000000
   26        3.146582   0.000000
 
 -0.1666667E+00  0.5000000E+00  0.0000000E+00  0.6944444E-02
    1      -13.561965   1.000000
    2      -13.542844   1.000000
    3      -13.337973   1.000000
    4      -13.335696   1.000000
    5       -6.602847   1.000000
    6       -6.593868   1.000000
    7       -6.183666   1.000000
    8       -6.174849   1.000000
    9       -5.143702   1.000000
   10       -5.142429   1.000000
   11       -4.549083   1.000000
   12       -4.532170   1.000000
   13       -3.692104   1.000000
   14       -3.642909   1.000000
   15       -3.160547   1.000000
   16       -3.149841   1.000000
   17       -1.858116   1.000000
   18       -1.751256   1.000000
   19        0.795984   0.000000
   20        0.811837   0.000000
   21        1.352218   0.000000
   22        1.459409   0.000000
   23        1.855503   0.000000
   24        1.862142   0.000000
   25        2.960167   0.000000
   26        2.991549   0.000000
 
 -0.8333333E-01  0.5000000E+00  0.0000000E+00  0.6944444E-02
    1      -13.541112   1.000000
    2      -13.529920   1.000000
    3      -13.345411   1.000000
    4      -13.344109   1.000000
    5       -6.936706   1.000000
    6       -6.928682   1.000000
    7       -6.174525   1.000000
    8       -6.170068   1.000000
    9       -5.323105   1.000000
   10       -5.320004   1.000000
   11       -4.430447   1.000000
   12       -4.423176   1.000000
   13       -3.292223   1.000000
   14       -3.284996   1.000000
   15       -2.817696   1.000000
   16       -2.758896   1.000000
   17       -1.873302   1.000000
   18       -1.778701   1.000000
   19        0.859461   0.000000
   20        0.894953   0.000000
   21        1.310082   0.000000
   22        1.403097   0.000000
   23        2.383825   0.000000
   24        2.399101   0.000000
   25        2.692227   0.000000
   26        2.695541   0.000000
 
  0.0000000E+00 -0.4166667E+00  0.0000000E+00  0.6944444E-02
    1      -13.690011   1.000000
    2      -13.690011   1.000000
    3      -13.423623   1.000000
    4      -13.423623   1.000000
    5       -6.895075   1.000000
    6       -6.895075   1.000000
    7       -5.988379   1.000000
    8       -5.988379   1.000000
    9       -5.312065   1.000000
   10       -5.312065   1.000000
   11       -4.297828   1.000000
   12       -4.297828   1.000000
   13       -3.273887   1.000000
   14       -3.273887   1.000000
   15       -2.301114   1.000000
   16       -2.301113   1.000000
   17       -2.169466   1.000000
   18       -2.169465   1.000000
   19        0.838168   0.000000
   20        0.838168   0.000000
   21        1.177703   0.000000
   22        1.177703   0.000000
   23        2.345837   0.000000
   24        2.345837   0.000000
   25        2.749800   0.000000
   26        2.749802   0.000000
 
  0.8333333E-01 -0.4166667E+00  0.0000000E+00  0.6944444E-02
    1      -13.541112   1.000000
    2      -13.529920   1.000000
    3      -13.345411   1.000000
    4      -13.344109   1.000000
    5       -6.936706   1.000000
    6       -6.928682   1.000000
    7       -6.174526   1.000000
    8       -6.170069   1.000000
    9       -5.323105   1.000000
   10       -5.320003   1.000000
   11       -4.430446   1.000000
   12       -4.423175   1.000000
   13       -3.292224   1.000000
   14       -3.284997   1.000000
   15       -2.817696   1.000000
   16       -2.758896   1.000000
   17       -1.873303   1.000000
   18       -1.778701   1.000000
   19        0.859460   0.000000
   20        0.894952   0.000000
   21        1.310083   0.000000
   22        1.403098   0.000000
   23        2.383823   0.000000
   24        2.399099   0.000000
   25        2.692227   0.000000
   26        2.695542   0.000000
 
  0.1666667E+00 -0.4166667E+00  0.0000000E+00  0.6944444E-02
    1      -13.421032   1.000000
    2      -13.399304   1.000000
    3      -13.268074   1.000000
    4      -13.265603   1.000000
    5       -6.698038   1.000000
    6       -6.679758   1.000000
    7       -6.381819   1.000000
    8       -6.374947   1.000000
    9       -5.258624   1.000000
   10       -5.253704   1.000000
   11       -4.476139   1.000000
   12       -4.457968   1.000000
   13       -3.693680   1.000000
   14       -3.647519   1.000000
   15       -3.340596   1.000000
   16       -3.335423   1.000000
   17       -1.691019   1.000000
   18       -1.578514   1.000000
   19        0.764834   0.000000
   20        0.809303   0.000000
   21        1.544203   0.000000
   22        1.691077   0.000000
   23        1.969215   0.000000
   24        1.994340   0.000000
   25        2.947129   0.000000
   26        2.999410   0.000000
 
  0.2500000E+00 -0.4166667E+00  0.0000000E+00  0.6944444E-02
    1      -13.356697   1.000000
    2      -13.328650   1.000000
    3      -13.218707   1.000000
    4      -13.215541   1.000000
    5       -6.529635   1.000000
    6       -6.521733   1.000000
    7       -6.303927   1.000000
    8       -6.281489   1.000000
    9       -5.131145   1.000000
   10       -5.122055   1.000000
   11       -4.553677   1.000000
   12       -4.520945   1.000000
   13       -4.436528   1.000000
   14       -4.398950   1.000000
   15       -3.417583   1.000000
   16       -3.412127   1.000000
   17       -1.590511   1.000000
   18       -1.462638   1.000000
   19        0.587952   0.000000
   20        0.606384   0.000000
   21        1.606844   0.000000
   22        1.620611   0.000000
   23        1.782828   0.000000
   24        1.910913   0.000000
   25        3.247949   0.000000
   26        3.317668   0.000000
 
  0.3333333E+00 -0.4166667E+00  0.0000000E+00  0.6944444E-02
    1      -13.356696   1.000000
    2      -13.328649   1.000000
    3      -13.218707   1.000000
    4      -13.215541   1.000000
    5       -6.529633   1.000000
    6       -6.521731   1.000000
    7       -6.303928   1.000000
    8       -6.281490   1.000000
    9       -5.131142   1.000000
   10       -5.122052   1.000000
   11       -4.553679   1.000000
   12       -4.520946   1.000000
   13       -4.436527   1.000000
   14       -4.398949   1.000000
   15       -3.417586   1.000000
   16       -3.412130   1.000000
   17       -1.590510   1.000000
   18       -1.462637   1.000000
   19        0.587951   0.000000
   20        0.606382   0.000000
   21        1.606845   0.000000
   22        1.620611   0.000000
   23        1.782828   0.000000
   24        1.910913   0.000000
   25        3.247939   0.000000
   26        3.317655   0.000000
 
  0.4166667E+00 -0.4166667E+00  0.0000000E+00  0.6944444E-02
    1      -13.421030   1.000000
    2      -13.399302   1.000000
    3      -13.268076   1.000000
    4      -13.265605   1.000000
    5       -6.698039   1.000000
    6       -6.679760   1.000000
    7       -6.381814   1.000000
    8       -6.374942   1.000000
    9       -5.258619   1.000000
   10       -5.253700   1.000000
   11       -4.476137   1.000000
   12       -4.457966   1.000000
   13       -3.693681   1.000000
   14       -3.647520   1.000000
   15       -3.340601   1.000000
   16       -3.335428   1.000000
   17       -1.691018   1.000000
   18       -1.578513   1.000000
   19        0.764832   0.000000
   20        0.809301   0.000000
   21        1.544202   0.000000
   22        1.691075   0.000000
   23        1.969216   0.000000
   24        1.994341   0.000000
   25        2.947132   0.000000
   26        2.999413   0.000000
 
  0.5000000E+00 -0.4166667E+00  0.0000000E+00  0.6944444E-02
    1      -13.541111   1.000000
    2      -13.529918   1.000000
    3      -13.345413   1.000000
    4      -13.344112   1.000000
    5       -6.936708   1.000000
    6       -6.928684   1.000000
    7       -6.174519   1.000000
    8       -6.170063   1.000000
    9       -5.323100   1.000000
   10       -5.319998   1.000000
   11       -4.430444   1.000000
   12       -4.423173   1.000000
   13       -3.292228   1.000000
   14       -3.285001   1.000000
   15       -2.817697   1.000000
   16       -2.758897   1.000000
   17       -1.873303   1.000000
   18       -1.778701   1.000000
   19        0.859459   0.000000
   20        0.894951   0.000000
   21        1.310082   0.000000
   22        1.403097   0.000000
   23        2.383827   0.000000
   24        2.399102   0.000000
   25        2.692247   0.000000
   26        2.695573   0.000000
 
 -0.4166667E+00 -0.4166667E+00  0.0000000E+00  0.6944444E-02
    1      -13.690009   1.000000
    2      -13.690009   1.000000
    3      -13.423626   1.000000
    4      -13.423626   1.000000
    5       -6.895076   1.000000
    6       -6.895076   1.000000
    7       -5.988374   1.000000
    8       -5.988374   1.000000
    9       -5.312060   1.000000
   10       -5.312060   1.000000
   11       -4.297825   1.000000
   12       -4.297825   1.000000
   13       -3.273891   1.000000
   14       -3.273891   1.000000
   15       -2.301115   1.000000
   16       -2.301115   1.000000
   17       -2.169467   1.000000
   18       -2.169467   1.000000
   19        0.838167   0.000000
   20        0.838167   0.000000
   21        1.177704   0.000000
   22        1.177704   0.000000
   23        2.345839   0.000000
   24        2.345840   0.000000
   25        2.749800   0.000000
   26        2.749801   0.000000
 
 -0.3333333E+00 -0.4166667E+00  0.0000000E+00  0.6944444E-02
    1      -13.833391   1.000000
    2      -13.824717   1.000000
    3      -13.484175   1.000000
    4      -13.483096   1.000000
    5       -6.637884   1.000000
    6       -6.637731   1.000000
    7       -5.812600   1.000000
    8       -5.806330   1.000000
    9       -5.207803   1.000000
   10       -5.205922   1.000000
   11       -4.378787   1.000000
   12       -4.371676   1.000000
   13       -3.080079   1.000000
   14       -3.075263   1.000000
   15       -2.927332   1.000000
   16       -2.874847   1.000000
   17       -2.102682   1.000000
   18       -2.014917   1.000000
   19        0.722785   0.000000
   20        0.760169   0.000000
   21        1.125166   0.000000
   22        1.136184   0.000000
   23        2.002870   0.000000
   24        2.034724   0.000000
   25        2.755484   0.000000
   26        2.775604   0.000000
 
 -0.2500000E+00 -0.4166667E+00  0.0000000E+00  0.6944444E-02
    1      -13.917157   1.000000
    2      -13.903923   1.000000
    3      -13.516004   1.000000
    4      -13.514324   1.000000
    5       -6.370847   1.000000
    6       -6.363103   1.000000
    7       -5.641893   1.000000
    8       -5.626754   1.000000
    9       -5.043723   1.000000
   10       -5.034113   1.000000
   11       -4.628298   1.000000
   12       -4.609488   1.000000
   13       -3.559202   1.000000
   14       -3.500189   1.000000
   15       -2.786702   1.000000
   16       -2.765216   1.000000
   17       -2.103251   1.000000
   18       -2.006147   1.000000
   19        0.566726   0.000000
   20        0.633646   0.000000
   21        1.181198   0.000000
   22        1.188584   0.000000
   23        1.550600   0.000000
   24        1.579753   0.000000
   25        2.906539   0.000000
   26        2.914162   0.000000
 
 -0.1666667E+00 -0.4166667E+00  0.0000000E+00  0.6944444E-02
    1      -13.917158   1.000000
    2      -13.903923   1.000000
    3      -13.516004   1.000000
    4      -13.514323   1.000000
    5       -6.370847   1.000000
    6       -6.363103   1.000000
    7       -5.641894   1.000000
    8       -5.626755   1.000000
    9       -5.043725   1.000000
   10       -5.034115   1.000000
   11       -4.628299   1.000000
   12       -4.609489   1.000000
   13       -3.559201   1.000000
   14       -3.500188   1.000000
   15       -2.786701   1.000000
   16       -2.765215   1.000000
   17       -2.103251   1.000000
   18       -2.006147   1.000000
   19        0.566726   0.000000
   20        0.633646   0.000000
   21        1.181197   0.000000
   22        1.188584   0.000000
   23        1.550600   0.000000
   24        1.579753   0.000000
   25        2.906542   0.000000
   26        2.914163   0.000000
 
 -0.8333333E-01 -0.4166667E+00  0.0000000E+00  0.6944444E-02
    1      -13.833393   1.000000
    2      -13.824718   1.000000
    3      -13.484173   1.000000
    4      -13.483094   1.000000
    5       -6.637883   1.000000
    6       -6.637731   1.000000
    7       -5.812603   1.000000
    8       -5.806334   1.000000
    9       -5.207808   1.000000
   10       -5.205926   1.000000
   11       -4.378789   1.000000
   12       -4.371679   1.000000
   13       -3.080076   1.000000
   14       -3.075260   1.000000
   15       -2.927330   1.000000
   16       -2.874844   1.000000
   17       -2.102682   1.000000
   18       -2.014916   1.000000
   19        0.722786   0.000000
   20        0.760170   0.000000
   21        1.125164   0.000000
   22        1.136182   0.000000
   23        2.002869   0.000000
   24        2.034723   0.000000
   25        2.755476   0.000000
   26        2.775597   0.000000
 
  0.0000000E+00 -0.3333333E+00  0.0000000E+00  0.6944444E-02
    1      -14.093201   1.000000
    2      -14.093200   1.000000
    3      -13.614975   1.000000
    4      -13.614975   1.000000
    5       -6.481499   1.000000
    6       -6.481499   1.000000
    7       -5.513427   1.000000
    8       -5.513427   1.000000
    9       -5.218968   1.000000
   10       -5.218968   1.000000
   11       -4.059608   1.000000
   12       -4.059608   1.000000
   13       -3.079110   1.000000
   14       -3.079110   1.000000
   15       -2.566419   1.000000
   16       -2.566418   1.000000
   17       -2.351521   1.000000
   18       -2.351519   1.000000
   19        0.797425   0.000000
   20        0.797427   0.000000
   21        0.885740   0.000000
   22        0.885742   0.000000
   23        1.975803   0.000000
   24        1.975803   0.000000
   25        2.606981   0.000000
   26        2.606981   0.000000
 
  0.8333333E-01 -0.3333333E+00  0.0000000E+00  0.6944444E-02
    1      -13.833393   1.000000
    2      -13.824719   1.000000
    3      -13.484172   1.000000
    4      -13.483093   1.000000
    5       -6.637884   1.000000
    6       -6.637731   1.000000
    7       -5.812606   1.000000
    8       -5.806336   1.000000
    9       -5.207807   1.000000
   10       -5.205926   1.000000
   11       -4.378788   1.000000
   12       -4.371677   1.000000
   13       -3.080077   1.000000
   14       -3.075261   1.000000
   15       -2.927330   1.000000
   16       -2.874845   1.000000
   17       -2.102682   1.000000
   18       -2.014917   1.000000
   19        0.722784   0.000000
   20        0.760168   0.000000
   21        1.125168   0.000000
   22        1.136185   0.000000
   23        2.002867   0.000000
   24        2.034721   0.000000
   25        2.755489   0.000000
   26        2.775614   0.000000
 
  0.1666667E+00 -0.3333333E+00  0.0000000E+00  0.6944444E-02
    1      -13.561966   1.000000
    2      -13.542845   1.000000
    3      -13.337972   1.000000
    4      -13.335695   1.000000
    5       -6.602848   1.000000
    6       -6.593869   1.000000
    7       -6.183669   1.000000
    8       -6.174852   1.000000
    9       -5.143701   1.000000
   10       -5.142428   1.000000
   11       -4.549081   1.000000
   12       -4.532168   1.000000
   13       -3.692105   1.000000
   14       -3.642910   1.000000
   15       -3.160547   1.000000
   16       -3.149841   1.000000
   17       -1.858117   1.000000
   18       -1.751258   1.000000
   19        0.795983   0.000000
   20        0.811836   0.000000
   21        1.352221   0.000000
   22        1.459411   0.000000
   23        1.855501   0.000000
   24        1.862140   0.000000
   25        2.960168   0.000000
   26        2.991551   0.000000
 
  0.2500000E+00 -0.3333333E+00  0.0000000E+00  0.6944444E-02
    1      -13.356697   1.000000
    2      -13.328650   1.000000
    3      -13.218706   1.000000
    4      -13.215540   1.000000
    5       -6.529637   1.000000
    6       -6.521735   1.000000
    7       -6.303928   1.000000
    8       -6.281490   1.000000
    9       -5.131142   1.000000
   10       -5.122052   1.000000
   11       -4.553679   1.000000
   12       -4.520947   1.000000
   13       -4.436528   1.000000
   14       -4.398950   1.000000
   15       -3.417582   1.000000
   16       -3.412126   1.000000
   17       -1.590512   1.000000
   18       -1.462639   1.000000
   19        0.587953   0.000000
   20        0.606384   0.000000
   21        1.606843   0.000000
   22        1.620610   0.000000
   23        1.782829   0.000000
   24        1.910914   0.000000
   25        3.247939   0.000000
   26        3.317656   0.000000
 
  0.3333333E+00 -0.3333333E+00  0.0000000E+00  0.6944444E-02
    1      -13.280378   1.000000
    2      -13.248820   1.000000
    3      -13.171942   1.000000
    4      -13.168503   1.000000
    5       -6.667617   1.000000
    6       -6.660502   1.000000
    7       -5.922758   1.000000
    8       -5.887510   1.000000
    9       -5.402309   1.000000
   10       -5.370968   1.000000
   11       -4.874935   1.000000
   12       -4.867614   1.000000
   13       -4.305112   1.000000
   14       -4.255948   1.000000
   15       -3.613838   1.000000
   16       -3.590026   1.000000
   17       -1.421984   1.000000
   18       -1.274874   1.000000
   19        0.398676   0.000000
   20        0.400895   0.000000
   21        1.499665   0.000000
   22        1.530296   0.000000
   23        1.995234   0.000000
   24        2.138172   0.000000
   25        3.393590   0.000000
   26        3.474606   0.000000
 
  0.4166667E+00 -0.3333333E+00  0.0000000E+00  0.6944444E-02
    1      -13.356696   1.000000
    2      -13.328649   1.000000
    3      -13.218707   1.000000
    4      -13.215541   1.000000
    5       -6.529633   1.000000
    6       -6.521731   1.000000
    7       -6.303928   1.000000
    8       -6.281490   1.000000
    9       -5.131142   1.000000
   10       -5.122052   1.000000
   11       -4.553679   1.000000
   12       -4.520946   1.000000
   13       -4.436527   1.000000
   14       -4.398949   1.000000
   15       -3.417586   1.000000
   16       -3.412130   1.000000
   17       -1.590510   1.000000
   18       -1.462637   1.000000
   19        0.587951   0.000000
   20        0.606382   0.000000
   21        1.606845   0.000000
   22        1.620611   0.000000
   23        1.782828   0.000000
   24        1.910913   0.000000
   25        3.247944   0.000000
   26        3.317656   0.000000
 
  0.5000000E+00 -0.3333333E+00  0.0000000E+00  0.6944444E-02
    1      -13.561964   1.000000
    2      -13.542843   1.000000
    3      -13.337975   1.000000
    4      -13.335698   1.000000
    5       -6.602848   1.000000
    6       -6.593869   1.000000
    7       -6.183663   1.000000
    8       -6.174846   1.000000
    9       -5.143698   1.000000
   10       -5.142425   1.000000
   11       -4.549081   1.000000
   12       -4.532168   1.000000
   13       -3.692106   1.000000
   14       -3.642911   1.000000
   15       -3.160550   1.000000
   16       -3.149845   1.000000
   17       -1.858116   1.000000
   18       -1.751256   1.000000
   19        0.795982   0.000000
   20        0.811835   0.000000
   21        1.352219   0.000000
   22        1.459409   0.000000
   23        1.855504   0.000000
   24        1.862143   0.000000
   25        2.960168   0.000000
   26        2.991550   0.000000
 
 -0.4166667E+00 -0.3333333E+00  0.0000000E+00  0.6944444E-02
    1      -13.833391   1.000000
    2      -13.824717   1.000000
    3      -13.484175   1.000000
    4      -13.483096   1.000000
    5       -6.637884   1.000000
    6       -6.637731   1.000000
    7       -5.812600   1.000000
    8       -5.806330   1.000000
    9       -5.207803   1.000000
   10       -5.205922   1.000000
   11       -4.378787   1.000000
   12       -4.371676   1.000000
   13       -3.080079   1.000000
   14       -3.075263   1.000000
   15       -2.927332   1.000000
   16       -2.874847   1.000000
   17       -2.102682   1.000000
   18       -2.014917   1.000000
   19        0.722785   0.000000
   20        0.760169   0.000000
   21        1.125166   0.000000
   22        1.136184   0.000000
   23        2.002870   0.000000
   24        2.034723   0.000000
   25        2.755480   0.000000
   26        2.775601   0.000000
 
 -0.3333333E+00 -0.3333333E+00  0.0000000E+00  0.6944444E-02
    1      -14.093199   1.000000
    2      -14.093199   1.000000
    3      -13.614977   1.000000
    4      -13.614977   1.000000
    5       -6.481499   1.000000
    6       -6.481499   1.000000
    7       -5.513424   1.000000
    8       -5.513424   1.000000
    9       -5.218964   1.000000
   10       -5.218964   1.000000
   11       -4.059604   1.000000
   12       -4.059604   1.000000
   13       -3.079111   1.000000
   14       -3.079111   1.000000
   15       -2.566420   1.000000
   16       -2.566420   1.000000
   17       -2.351522   1.000000
   18       -2.351522   1.000000
   19        0.797426   0.000000
   20        0.797426   0.000000
   21        0.885742   0.000000
   22        0.885742   0.000000
   23        1.975803   0.000000
   24        1.975803   0.000000
   25        2.606979   0.000000
   26        2.606979   0.000000
 
 -0.2500000E+00 -0.3333333E+00  0.0000000E+00  0.6944444E-02
    1      -14.281199   1.000000
    2      -14.275767   1.000000
    3      -13.703475   1.000000
    4      -13.702760   1.000000
    5       -6.271209   1.000000
    6       -6.262836   1.000000
    7       -5.205995   1.000000
    8       -5.197434   1.000000
    9       -5.155210   1.000000
   10       -5.150286   1.000000
   11       -4.209614   1.000000
   12       -4.202865   1.000000
   13       -3.019228   1.000000
   14       -2.955422   1.000000
   15       -2.734595   1.000000
   16       -2.709045   1.000000
   17       -2.243122   1.000000
   18       -2.172633   1.000000
   19        0.539601   0.000000
   20        0.596543   0.000000
   21        0.991925   0.000000
   22        1.012723   0.000000
   23        1.533499   0.000000
   24        1.582290   0.000000
   25        2.614238   0.000000
   26        2.649699   0.000000
 
 -0.1666667E+00 -0.3333333E+00  0.0000000E+00  0.6944444E-02
    1      -14.348246   1.000000
    2      -14.340991   1.000000
    3      -13.734382   1.000000
    4      -13.733419   1.000000
    5       -6.172957   1.000000
    6       -6.158586   1.000000
    7       -5.108629   1.000000
    8       -5.103292   1.000000
    9       -4.949347   1.000000
   10       -4.920534   1.000000
   11       -4.502055   1.000000
   12       -4.475523   1.000000
   13       -3.247830   1.000000
   14       -3.179087   1.000000
   15       -2.476586   1.000000
   16       -2.441747   1.000000
   17       -2.185397   1.000000
   18       -2.108415   1.000000
   19        0.417405   0.000000
   20        0.482480   0.000000
   21        1.050154   0.000000
   22        1.063415   0.000000
   23        1.246522   0.000000
   24        1.303854   0.000000
   25        2.672034   0.000000
   26        2.709508   0.000000
 
 -0.8333333E-01 -0.3333333E+00  0.0000000E+00  0.6944444E-02
    1      -14.281200   1.000000
    2      -14.275768   1.000000
    3      -13.703474   1.000000
    4      -13.702759   1.000000
    5       -6.271210   1.000000
    6       -6.262837   1.000000
    7       -5.205996   1.000000
    8       -5.197434   1.000000
    9       -5.155211   1.000000
   10       -5.150287   1.000000
   11       -4.209617   1.000000
   12       -4.202867   1.000000
   13       -3.019226   1.000000
   14       -2.955420   1.000000
   15       -2.734595   1.000000
   16       -2.709046   1.000000
   17       -2.243121   1.000000
   18       -2.172632   1.000000
   19        0.539601   0.000000
   20        0.596544   0.000000
   21        0.991923   0.000000
   22        1.012721   0.000000
   23        1.533500   0.000000
   24        1.582291   0.000000
   25        2.614238   0.000000
   26        2.649699   0.000000
 
  0.0000000E+00 -0.2500000E+00  0.0000000E+00  0.6944444E-02
    1      -14.571836   1.000000
    2      -14.571836   1.000000
    3      -13.850604   1.000000
    4      -13.850604   1.000000
    5       -6.240511   1.000000
    6       -6.240511   1.000000
    7       -5.079088   1.000000
    8       -5.079088   1.000000
    9       -4.878416   1.000000
   10       -4.878416   1.000000
   11       -3.692782   1.000000
   12       -3.692781   1.000000
   13       -2.971475   1.000000
   14       -2.971475   1.000000
   15       -2.754570   1.000000
   16       -2.754570   1.000000
   17       -2.146269   1.000000
   18       -2.146269   1.000000
   19        0.672109   0.000000
   20        0.672110   0.000000
   21        0.947940   0.000000
   22        0.947941   0.000000
   23        1.499709   0.000000
   24        1.499709   0.000000
   25        2.339988   0.000000
   26        2.339988   0.000000
 
  0.8333333E-01 -0.2500000E+00  0.0000000E+00  0.6944444E-02
    1      -14.281200   1.000000
    2      -14.275768   1.000000
    3      -13.703474   1.000000
    4      -13.702759   1.000000
    5       -6.271211   1.000000
    6       -6.262837   1.000000
    7       -5.205998   1.000000
    8       -5.197436   1.000000
    9       -5.155212   1.000000
   10       -5.150289   1.000000
   11       -4.209616   1.000000
   12       -4.202867   1.000000
   13       -3.019224   1.000000
   14       -2.955418   1.000000
   15       -2.734595   1.000000
   16       -2.709046   1.000000
   17       -2.243121   1.000000
   18       -2.172632   1.000000
   19        0.539596   0.000000
   20        0.596539   0.000000
   21        0.991928   0.000000
   22        1.012726   0.000000
   23        1.533496   0.000000
   24        1.582287   0.000000
   25        2.614274   0.000000
   26        2.649729   0.000000
 
  0.1666667E+00 -0.2500000E+00  0.0000000E+00  0.6944444E-02
    1      -13.917158   1.000000
    2      -13.903924   1.000000
    3      -13.516002   1.000000
    4      -13.514322   1.000000
    5       -6.370848   1.000000
    6       -6.363104   1.000000
    7       -5.641899   1.000000
    8       -5.626759   1.000000
    9       -5.043725   1.000000
   10       -5.034116   1.000000
   11       -4.628297   1.000000
   12       -4.609486   1.000000
   13       -3.559199   1.000000
   14       -3.500186   1.000000
   15       -2.786701   1.000000
   16       -2.765215   1.000000
   17       -2.103253   1.000000
   18       -2.006149   1.000000
   19        0.566724   0.000000
   20        0.633644   0.000000
   21        1.181201   0.000000
   22        1.188588   0.000000
   23        1.550597   0.000000
   24        1.579750   0.000000
   25        2.906545   0.000000
   26        2.914168   0.000000
 
  0.2500000E+00 -0.2500000E+00  0.0000000E+00  0.6944444E-02
    1      -13.571697   1.000000
    2      -13.549768   1.000000
    3      -13.334172   1.000000
    4      -13.331531   1.000000
    5       -6.397021   1.000000
    6       -6.392650   1.000000
    7       -6.185971   1.000000
    8       -6.174840   1.000000
    9       -4.926146   1.000000
   10       -4.916241   1.000000
   11       -4.615435   1.000000
   12       -4.594961   1.000000
   13       -4.244423   1.000000
   14       -4.203266   1.000000
   15       -3.081731   1.000000
   16       -3.072244   1.000000
   17       -1.880142   1.000000
   18       -1.769475   1.000000
   19        0.752165   0.000000
   20        0.753432   0.000000
   21        1.384196   0.000000
   22        1.488964   0.000000
   23        1.606793   0.000000
   24        1.618734   0.000000
   25        3.106750   0.000000
   26        3.146584   0.000000
 
  0.3333333E+00 -0.2500000E+00  0.0000000E+00  0.6944444E-02
    1      -13.356697   1.000000
    2      -13.328650   1.000000
    3      -13.218706   1.000000
    4      -13.215540   1.000000
    5       -6.529637   1.000000
    6       -6.521735   1.000000
    7       -6.303928   1.000000
    8       -6.281490   1.000000
    9       -5.131142   1.000000
   10       -5.122052   1.000000
   11       -4.553679   1.000000
   12       -4.520947   1.000000
   13       -4.436528   1.000000
   14       -4.398950   1.000000
   15       -3.417582   1.000000
   16       -3.412126   1.000000
   17       -1.590512   1.000000
   18       -1.462639   1.000000
   19        0.587953   0.000000
   20        0.606384   0.000000
   21        1.606843   0.000000
   22        1.620610   0.000000
   23        1.782829   0.000000
   24        1.910914   0.000000
   25        3.247948   0.000000
   26        3.317700   0.000000
 
  0.4166667E+00 -0.2500000E+00  0.0000000E+00  0.6944444E-02
    1      -13.356697   1.000000
    2      -13.328650   1.000000
    3      -13.218707   1.000000
    4      -13.215541   1.000000
    5       -6.529635   1.000000
    6       -6.521733   1.000000
    7       -6.303927   1.000000
    8       -6.281489   1.000000
    9       -5.131145   1.000000
   10       -5.122055   1.000000
   11       -4.553677   1.000000
   12       -4.520945   1.000000
   13       -4.436528   1.000000
   14       -4.398950   1.000000
   15       -3.417583   1.000000
   16       -3.412127   1.000000
   17       -1.590511   1.000000
   18       -1.462638   1.000000
   19        0.587952   0.000000
   20        0.606384   0.000000
   21        1.606844   0.000000
   22        1.620611   0.000000
   23        1.782828   0.000000
   24        1.910913   0.000000
   25        3.247940   0.000000
   26        3.317665   0.000000
 
  0.5000000E+00 -0.2500000E+00  0.0000000E+00  0.6944444E-02
    1      -13.571697   1.000000
    2      -13.549767   1.000000
    3      -13.334174   1.000000
    4      -13.331532   1.000000
    5       -6.397020   1.000000
    6       -6.392649   1.000000
    7       -6.185966   1.000000
    8       -6.174835   1.000000
    9       -4.926148   1.000000
   10       -4.916242   1.000000
   11       -4.615436   1.000000
   12       -4.594962   1.000000
   13       -4.244422   1.000000
   14       -4.203265   1.000000
   15       -3.081732   1.000000
   16       -3.072246   1.000000
   17       -1.880139   1.000000
   18       -1.769473   1.000000
   19        0.752165   0.000000
   20        0.753432   0.000000
   21        1.384193   0.000000
   22        1.488962   0.000000
   23        1.606795   0.000000
   24        1.618737   0.000000
   25        3.106763   0.000000
   26        3.146584   0.000000
 
 -0.4166667E+00 -0.2500000E+00  0.0000000E+00  0.6944444E-02
    1      -13.917157   1.000000
    2      -13.903923   1.000000
    3      -13.516004   1.000000
    4      -13.514324   1.000000
    5       -6.370847   1.000000
    6       -6.363103   1.000000
    7       -5.641893   1.000000
    8       -5.626754   1.000000
    9       -5.043723   1.000000
   10       -5.034113   1.000000
   11       -4.628298   1.000000
   12       -4.609488   1.000000
   13       -3.559202   1.000000
   14       -3.500189   1.000000
   15       -2.786702   1.000000
   16       -2.765216   1.000000
   17       -2.103251   1.000000
   18       -2.006147   1.000000
   19        0.566726   0.000000
   20        0.633646   0.000000
   21        1.181198   0.000000
   22        1.188584   0.000000
   23        1.550600   0.000000
   24        1.579753   0.000000
   25        2.906538   0.000000
   26        2.914162   0.000000
 
 -0.3333333E+00 -0.2500000E+00  0.0000000E+00  0.6944444E-02
    1      -14.281199   1.000000
    2      -14.275767   1.000000
    3      -13.703475   1.000000
    4      -13.702760   1.000000
    5       -6.271209   1.000000
    6       -6.262836   1.000000
    7       -5.205995   1.000000
    8       -5.197434   1.000000
    9       -5.155210   1.000000
   10       -5.150286   1.000000
   11       -4.209614   1.000000
   12       -4.202865   1.000000
   13       -3.019228   1.000000
   14       -2.955422   1.000000
   15       -2.734595   1.000000
   16       -2.709045   1.000000
   17       -2.243122   1.000000
   18       -2.172633   1.000000
   19        0.539601   0.000000
   20        0.596543   0.000000
   21        0.991925   0.000000
   22        1.012723   0.000000
   23        1.533499   0.000000
   24        1.582290   0.000000
   25        2.614238   0.000000
   26        2.649699   0.000000
 
 -0.2500000E+00 -0.2500000E+00  0.0000000E+00  0.6944444E-02
    1      -14.571836   1.000000
    2      -14.571836   1.000000
    3      -13.850605   1.000000
    4      -13.850605   1.000000
    5       -6.240509   1.000000
    6       -6.240509   1.000000
    7       -5.079086   1.000000
    8       -5.079086   1.000000
    9       -4.878417   1.000000
   10       -4.878417   1.000000
   11       -3.692777   1.000000
   12       -3.692777   1.000000
   13       -2.971477   1.000000
   14       -2.971477   1.000000
   15       -2.754568   1.000000
   16       -2.754568   1.000000
   17       -2.146270   1.000000
   18       -2.146270   1.000000
   19        0.672110   0.000000
   20        0.672110   0.000000
   21        0.947940   0.000000
   22        0.947940   0.000000
   23        1.499709   0.000000
   24        1.499709   0.000000
   25        2.339985   0.000000
   26        2.339989   0.000000
 
 -0.1666667E+00 -0.2500000E+00  0.0000000E+00  0.6944444E-02
    1      -14.733496   1.000000
    2      -14.730771   1.000000
    3      -13.930604   1.000000
    4      -13.930234   1.000000
    5       -6.270864   1.000000
    6       -6.265437   1.000000
    7       -4.916200   1.000000
    8       -4.911315   1.000000
    9       -4.546294   1.000000
   10       -4.538138   1.000000
   11       -3.826616   1.000000
   12       -3.825435   1.000000
   13       -3.204089   1.000000
   14       -3.167476   1.000000
   15       -2.421479   1.000000
   16       -2.389917   1.000000
   17       -1.997411   1.000000
   18       -1.969739   1.000000
   19        0.602428   0.000000
   20        0.624886   0.000000
   21        1.035610   0.000000
   22        1.041884   0.000000
   23        1.153196   0.000000
   24        1.219991   0.000000
   25        2.288266   0.000000
   26        2.334322   0.000000
 
 -0.8333333E-01 -0.2500000E+00  0.0000000E+00  0.6944444E-02
    1      -14.733496   1.000000
    2      -14.730772   1.000000
    3      -13.930604   1.000000
    4      -13.930234   1.000000
    5       -6.270865   1.000000
    6       -6.265438   1.000000
    7       -4.916201   1.000000
    8       -4.911316   1.000000
    9       -4.546293   1.000000
   10       -4.538136   1.000000
   11       -3.826619   1.000000
   12       -3.825438   1.000000
   13       -3.204088   1.000000
   14       -3.167475   1.000000
   15       -2.421481   1.000000
   16       -2.389919   1.000000
   17       -1.997410   1.000000
   18       -1.969738   1.000000
   19        0.602429   0.000000
   20        0.624886   0.000000
   21        1.035609   0.000000
   22        1.041882   0.000000
   23        1.153197   0.000000
   24        1.219992   0.000000
   25        2.288265   0.000000
   26        2.334317   0.000000
 
  0.0000000E+00 -0.1666667E+00  0.0000000E+00  0.6944444E-02
    1      -14.993169   1.000000
    2      -14.993169   1.000000
    3      -14.063072   1.000000
    4      -14.063072   1.000000
    5       -6.481757   1.000000
    6       -6.481757   1.000000
    7       -4.568389   1.000000
    8       -4.568389   1.000000
    9       -4.223035   1.000000
   10       -4.223034   1.000000
   11       -3.384044   1.000000
   12       -3.384043   1.000000
   13       -3.253061   1.000000
   14       -3.253061   1.000000
   15       -2.470998   1.000000
   16       -2.470998   1.000000
   17       -1.768343   1.000000
   18       -1.768343   1.000000
   19        0.815400   0.000000
   20        0.815401   0.000000
   21        1.177628   0.000000
   22        1.177629   0.000000
   23        1.219403   0.000000
   24        1.219404   0.000000
   25        1.963489   0.000000
   26        1.963553   0.000000
 
  0.8333333E-01 -0.1666667E+00  0.0000000E+00  0.6944444E-02
    1      -14.733496   1.000000
    2      -14.730772   1.000000
    3      -13.930603   1.000000
    4      -13.930233   1.000000
    5       -6.270866   1.000000
    6       -6.265438   1.000000
    7       -4.916204   1.000000
    8       -4.911318   1.000000
    9       -4.546291   1.000000
   10       -4.538134   1.000000
   11       -3.826623   1.000000
   12       -3.825441   1.000000
   13       -3.204084   1.000000
   14       -3.167471   1.000000
   15       -2.421480   1.000000
   16       -2.389918   1.000000
   17       -1.997410   1.000000
   18       -1.969738   1.000000
   19        0.602423   0.000000
   20        0.624882   0.000000
   21        1.035613   0.000000
   22        1.041887   0.000000
   23        1.153193   0.000000
   24        1.219988   0.000000
   25        2.288264   0.000000
   26        2.334326   0.000000
 
  0.1666667E+00 -0.1666667E+00  0.0000000E+00  0.6944444E-02
    1      -14.348246   1.000000
    2      -14.340992   1.000000
    3      -13.734381   1.000000
    4      -13.733418   1.000000
    5       -6.172958   1.000000
    6       -6.158587   1.000000
    7       -5.108632   1.000000
    8       -5.103295   1.000000
    9       -4.949350   1.000000
   10       -4.920536   1.000000
   11       -4.502055   1.000000
   12       -4.475523   1.000000
   13       -3.247825   1.000000
   14       -3.179083   1.000000
   15       -2.476586   1.000000
   16       -2.441747   1.000000
   17       -2.185397   1.000000
   18       -2.108415   1.000000
   19        0.417400   0.000000
   20        0.482475   0.000000
   21        1.050158   0.000000
   22        1.063419   0.000000
   23        1.246518   0.000000
   24        1.303850   0.000000
   25        2.672062   0.000000
   26        2.709536   0.000000
 
  0.2500000E+00 -0.1666667E+00  0.0000000E+00  0.6944444E-02
    1      -13.917158   1.000000
    2      -13.903924   1.000000
    3      -13.516002   1.000000
    4      -13.514322   1.000000
    5       -6.370848   1.000000
    6       -6.363104   1.000000
    7       -5.641899   1.000000
    8       -5.626759   1.000000
    9       -5.043725   1.000000
   10       -5.034116   1.000000
   11       -4.628297   1.000000
   12       -4.609486   1.000000
   13       -3.559199   1.000000
   14       -3.500186   1.000000
   15       -2.786701   1.000000
   16       -2.765215   1.000000
   17       -2.103253   1.000000
   18       -2.006149   1.000000
   19        0.566724   0.000000
   20        0.633644   0.000000
   21        1.181201   0.000000
   22        1.188588   0.000000
   23        1.550597   0.000000
   24        1.579750   0.000000
   25        2.906553   0.000000
   26        2.914170   0.000000
 
  0.3333333E+00 -0.1666667E+00  0.0000000E+00  0.6944444E-02
    1      -13.561966   1.000000
    2      -13.542845   1.000000
    3      -13.337972   1.000000
    4      -13.335695   1.000000
    5       -6.602848   1.000000
    6       -6.593869   1.000000
    7       -6.183669   1.000000
    8       -6.174852   1.000000
    9       -5.143701   1.000000
   10       -5.142428   1.000000
   11       -4.549081   1.000000
   12       -4.532168   1.000000
   13       -3.692105   1.000000
   14       -3.642910   1.000000
   15       -3.160547   1.000000
   16       -3.149841   1.000000
   17       -1.858117   1.000000
   18       -1.751258   1.000000
   19        0.795983   0.000000
   20        0.811836   0.000000
   21        1.352221   0.000000
   22        1.459411   0.000000
   23        1.855501   0.000000
   24        1.862140   0.000000
   25        2.960169   0.000000
   26        2.991550   0.000000
 
  0.4166667E+00 -0.1666667E+00  0.0000000E+00  0.6944444E-02
    1      -13.421032   1.000000
    2      -13.399304   1.000000
    3      -13.268074   1.000000
    4      -13.265603   1.000000
    5       -6.698038   1.000000
    6       -6.679758   1.000000
    7       -6.381819   1.000000
    8       -6.374947   1.000000
    9       -5.258624   1.000000
   10       -5.253704   1.000000
   11       -4.476139   1.000000
   12       -4.457968   1.000000
   13       -3.693680   1.000000
   14       -3.647519   1.000000
   15       -3.340596   1.000000
   16       -3.335423   1.000000
   17       -1.691019   1.000000
   18       -1.578514   1.000000
   19        0.764834   0.000000
   20        0.809303   0.000000
   21        1.544203   0.000000
   22        1.691077   0.000000
   23        1.969214   0.000000
   24        1.994340   0.000000
   25        2.947129   0.000000
   26        2.999411   0.000000
 
  0.5000000E+00 -0.1666667E+00  0.0000000E+00  0.6944444E-02
    1      -13.561965   1.000000
    2      -13.542844   1.000000
    3      -13.337973   1.000000
    4      -13.335696   1.000000
    5       -6.602847   1.000000
    6       -6.593868   1.000000
    7       -6.183666   1.000000
    8       -6.174849   1.000000
    9       -5.143702   1.000000
   10       -5.142429   1.000000
   11       -4.549083   1.000000
   12       -4.532170   1.000000
   13       -3.692104   1.000000
   14       -3.642909   1.000000
   15       -3.160547   1.000000
   16       -3.149841   1.000000
   17       -1.858116   1.000000
   18       -1.751256   1.000000
   19        0.795984   0.000000
   20        0.811837   0.000000
   21        1.352218   0.000000
   22        1.459409   0.000000
   23        1.855503   0.000000
   24        1.862142   0.000000
   25        2.960167   0.000000
   26        2.991549   0.000000
 
 -0.4166667E+00 -0.1666667E+00  0.0000000E+00  0.6944444E-02
    1      -13.917158   1.000000
    2      -13.903923   1.000000
    3      -13.516004   1.000000
    4      -13.514323   1.000000
    5       -6.370847   1.000000
    6       -6.363103   1.000000
    7       -5.641894   1.000000
    8       -5.626755   1.000000
    9       -5.043725   1.000000
   10       -5.034115   1.000000
   11       -4.628299   1.000000
   12       -4.609489   1.000000
   13       -3.559201   1.000000
   14       -3.500188   1.000000
   15       -2.786701   1.000000
   16       -2.765215   1.000000
   17       -2.103251   1.000000
   18       -2.006147   1.000000
   19        0.566726   0.000000
   20        0.633646   0.000000
   21        1.181197   0.000000
   22        1.188584   0.000000
   23        1.550600   0.000000
   24        1.579753   0.000000
   25        2.906544   0.000000
   26        2.914171   0.000000
 
 -0.3333333E+00 -0.1666667E+00  0.0000000E+00  0.6944444E-02
    1      -14.348246   1.000000
    2      -14.340991   1.000000
    3      -13.734382   1.000000
    4      -13.733419   1.000000
    5       -6.172957   1.000000
    6       -6.158586   1.000000
    7       -5.108629   1.000000
    8       -5.103292   1.000000
    9       -4.949347   1.000000
   10       -4.920534   1.000000
   11       -4.502055   1.000000
   12       -4.475523   1.000000
   13       -3.247830   1.000000
   14       -3.179087   1.000000
   15       -2.476586   1.000000
   16       -2.441747   1.000000
   17       -2.185397   1.000000
   18       -2.108415   1.000000
   19        0.417405   0.000000
   20        0.482480   0.000000
   21        1.050153   0.000000
   22        1.063415   0.000000
   23        1.246522   0.000000
   24        1.303854   0.000000
   25        2.672034   0.000000
   26        2.709506   0.000000
 
 -0.2500000E+00 -0.1666667E+00  0.0000000E+00  0.6944444E-02
    1      -14.733496   1.000000
    2      -14.730771   1.000000
    3      -13.930604   1.000000
    4      -13.930234   1.000000
    5       -6.270864   1.000000
    6       -6.265437   1.000000
    7       -4.916200   1.000000
    8       -4.911315   1.000000
    9       -4.546294   1.000000
   10       -4.538138   1.000000
   11       -3.826616   1.000000
   12       -3.825435   1.000000
   13       -3.204089   1.000000
   14       -3.167476   1.000000
   15       -2.421479   1.000000
   16       -2.389917   1.000000
   17       -1.997411   1.000000
   18       -1.969739   1.000000
   19        0.602428   0.000000
   20        0.624886   0.000000
   21        1.035610   0.000000
   22        1.041884   0.000000
   23        1.153196   0.000000
   24        1.219991   0.000000
   25        2.288251   0.000000
   26        2.334313   0.000000
 
 -0.1666667E+00 -0.1666667E+00  0.0000000E+00  0.6944444E-02
    1      -14.993169   1.000000
    2      -14.993169   1.000000
    3      -14.063073   1.000000
    4      -14.063073   1.000000
    5       -6.481755   1.000000
    6       -6.481755   1.000000
    7       -4.568386   1.000000
    8       -4.568386   1.000000
    9       -4.223038   1.000000
   10       -4.223038   1.000000
   11       -3.384046   1.000000
   12       -3.384046   1.000000
   13       -3.253056   1.000000
   14       -3.253056   1.000000
   15       -2.470996   1.000000
   16       -2.470996   1.000000
   17       -1.768344   1.000000
   18       -1.768344   1.000000
   19        0.815400   0.000000
   20        0.815401   0.000000
   21        1.177630   0.000000
   22        1.177630   0.000000
   23        1.219405   0.000000
   24        1.219406   0.000000
   25        1.963488   0.000000
   26        1.963503   0.000000
 
 -0.8333333E-01 -0.1666667E+00  0.0000000E+00  0.6944444E-02
    1      -15.085140   1.000000
    2      -15.084236   1.000000
    3      -14.109651   1.000000
    4      -14.109527   1.000000
    5       -6.571214   1.000000
    6       -6.569803   1.000000
    7       -4.408208   1.000000
    8       -4.398395   1.000000
    9       -4.016418   1.000000
   10       -4.016329   1.000000
   11       -3.496490   1.000000
   12       -3.474340   1.000000
   13       -3.262674   1.000000
   14       -3.252979   1.000000
   15       -2.356048   1.000000
   16       -2.327493   1.000000
   17       -1.693636   1.000000
   18       -1.688563   1.000000
   19        0.915294   0.000000
   20        0.927101   0.000000
   21        1.091694   0.000000
   22        1.141949   0.000000
   23        1.250168   0.000000
   24        1.278998   0.000000
   25        1.871085   0.000000
   26        1.919889   0.000000
 
  0.0000000E+00 -0.8333333E-01  0.0000000E+00  0.6944444E-02
    1      -15.274961   1.000000
    2      -15.274961   1.000000
    3      -14.206835   1.000000
    4      -14.206835   1.000000
    5       -6.784523   1.000000
    6       -6.784523   1.000000
    7       -4.024002   1.000000
    8       -4.024002   1.000000
    9       -3.684185   1.000000
   10       -3.684185   1.000000
   11       -3.606010   1.000000
   12       -3.606010   1.000000
   13       -2.869861   1.000000
   14       -2.869860   1.000000
   15       -2.491535   1.000000
   16       -2.491535   1.000000
   17       -1.575477   1.000000
   18       -1.575477   1.000000
   19        1.248930   0.000000
   20        1.248935   0.000000
   21        1.295992   0.000000
   22        1.295993   0.000000
   23        1.455127   0.000000
   24        1.455133   0.000000
   25        1.596658   0.000000
   26        1.596695   0.000000
 
  0.8333333E-01 -0.8333333E-01  0.0000000E+00  0.6944444E-02
    1      -15.085140   1.000000
    2      -15.084236   1.000000
    3      -14.109651   1.000000
    4      -14.109527   1.000000
    5       -6.571215   1.000000
    6       -6.569804   1.000000
    7       -4.408212   1.000000
    8       -4.398398   1.000000
    9       -4.016413   1.000000
   10       -4.016325   1.000000
   11       -3.496486   1.000000
   12       -3.474336   1.000000
   13       -3.262681   1.000000
   14       -3.252987   1.000000
   15       -2.356047   1.000000
   16       -2.327492   1.000000
   17       -1.693635   1.000000
   18       -1.688563   1.000000
   19        0.915293   0.000000
   20        0.927099   0.000000
   21        1.091687   0.000000
   22        1.141943   0.000000
   23        1.250171   0.000000
   24        1.278998   0.000000
   25        1.870528   0.000000
   26        1.919034   0.000000
 
  0.1666667E+00 -0.8333333E-01  0.0000000E+00  0.6944444E-02
    1      -14.733496   1.000000
    2      -14.730772   1.000000
    3      -13.930603   1.000000
    4      -13.930233   1.000000
    5       -6.270866   1.000000
    6       -6.265438   1.000000
    7       -4.916204   1.000000
    8       -4.911318   1.000000
    9       -4.546291   1.000000
   10       -4.538134   1.000000
   11       -3.826623   1.000000
   12       -3.825441   1.000000
   13       -3.204084   1.000000
   14       -3.167471   1.000000
   15       -2.421480   1.000000
   16       -2.389918   1.000000
   17       -1.997410   1.000000
   18       -1.969738   1.000000
   19        0.602423   0.000000
   20        0.624882   0.000000
   21        1.035613   0.000000
   22        1.041887   0.000000
   23        1.153193   0.000000
   24        1.219988   0.000000
   25        2.288431   0.000000
   26        2.334343   0.000000
 
  0.2500000E+00 -0.8333333E-01  0.0000000E+00  0.6944444E-02
    1      -14.281200   1.000000
    2      -14.275768   1.000000
    3      -13.703474   1.000000
    4      -13.702759   1.000000
    5       -6.271211   1.000000
    6       -6.262837   1.000000
    7       -5.205998   1.000000
    8       -5.197436   1.000000
    9       -5.155212   1.000000
   10       -5.150289   1.000000
   11       -4.209616   1.000000
   12       -4.202867   1.000000
   13       -3.019224   1.000000
   14       -2.955418   1.000000
   15       -2.734595   1.000000
   16       -2.709046   1.000000
   17       -2.243121   1.000000
   18       -2.172632   1.000000
   19        0.539596   0.000000
   20        0.596539   0.000000
   21        0.991928   0.000000
   22        1.012726   0.000000
   23        1.533496   0.000000
   24        1.582287   0.000000
   25        2.614243   0.000000
   26        2.649707   0.000000
 
  0.3333333E+00 -0.8333333E-01  0.0000000E+00  0.6944444E-02
    1      -13.833393   1.000000
    2      -13.824719   1.000000
    3      -13.484172   1.000000
    4      -13.483093   1.000000
    5       -6.637884   1.000000
    6       -6.637731   1.000000
    7       -5.812606   1.000000
    8       -5.806336   1.000000
    9       -5.207807   1.000000
   10       -5.205926   1.000000
   11       -4.378788   1.000000
   12       -4.371677   1.000000
   13       -3.080077   1.000000
   14       -3.075261   1.000000
   15       -2.927330   1.000000
   16       -2.874845   1.000000
   17       -2.102682   1.000000
   18       -2.014917   1.000000
   19        0.722784   0.000000
   20        0.760168   0.000000
   21        1.125168   0.000000
   22        1.136185   0.000000
   23        2.002867   0.000000
   24        2.034721   0.000000
   25        2.755485   0.000000
   26        2.775616   0.000000
 
  0.4166667E+00 -0.8333333E-01  0.0000000E+00  0.6944444E-02
    1      -13.541112   1.000000
    2      -13.529920   1.000000
    3      -13.345411   1.000000
    4      -13.344109   1.000000
    5       -6.936706   1.000000
    6       -6.928682   1.000000
    7       -6.174526   1.000000
    8       -6.170069   1.000000
    9       -5.323105   1.000000
   10       -5.320003   1.000000
   11       -4.430446   1.000000
   12       -4.423175   1.000000
   13       -3.292224   1.000000
   14       -3.284997   1.000000
   15       -2.817696   1.000000
   16       -2.758896   1.000000
   17       -1.873303   1.000000
   18       -1.778701   1.000000
   19        0.859460   0.000000
   20        0.894952   0.000000
   21        1.310083   0.000000
   22        1.403098   0.000000
   23        2.383823   0.000000
   24        2.399099   0.000000
   25        2.692229   0.000000
   26        2.695542   0.000000
 
  0.5000000E+00 -0.8333333E-01  0.0000000E+00  0.6944444E-02
    1      -13.541112   1.000000
    2      -13.529920   1.000000
    3      -13.345411   1.000000
    4      -13.344109   1.000000
    5       -6.936706   1.000000
    6       -6.928682   1.000000
    7       -6.174525   1.000000
    8       -6.170068   1.000000
    9       -5.323105   1.000000
   10       -5.320004   1.000000
   11       -4.430447   1.000000
   12       -4.423176   1.000000
   13       -3.292223   1.000000
   14       -3.284996   1.000000
   15       -2.817696   1.000000
   16       -2.758896   1.000000
   17       -1.873302   1.000000
   18       -1.778701   1.000000
   19        0.859461   0.000000
   20        0.894953   0.000000
   21        1.310082   0.000000
   22        1.403097   0.000000
   23        2.383825   0.000000
   24        2.399101   0.000000
   25        2.692226   0.000000
   26        2.695541   0.000000
 
 -0.4166667E+00 -0.8333333E-01  0.0000000E+00  0.6944444E-02
    1      -13.833393   1.000000
    2      -13.824718   1.000000
    3      -13.484173   1.000000
    4      -13.483094   1.000000
    5       -6.637883   1.000000
    6       -6.637731   1.000000
    7       -5.812603   1.000000
    8       -5.806334   1.000000
    9       -5.207808   1.000000
   10       -5.205926   1.000000
   11       -4.378789   1.000000
   12       -4.371679   1.000000
   13       -3.080076   1.000000
   14       -3.075260   1.000000
   15       -2.927330   1.000000
   16       -2.874844   1.000000
   17       -2.102682   1.000000
   18       -2.014916   1.000000
   19        0.722786   0.000000
   20        0.760170   0.000000
   21        1.125164   0.000000
   22        1.136182   0.000000
   23        2.002869   0.000000
   24        2.034724   0.000000
   25        2.755477   0.000000
   26        2.775597   0.000000
 
 -0.3333333E+00 -0.8333333E-01  0.0000000E+00  0.6944444E-02
    1      -14.281200   1.000000
    2      -14.275768   1.000000
    3      -13.703474   1.000000
    4      -13.702759   1.000000
    5       -6.271210   1.000000
    6       -6.262837   1.000000
    7       -5.205996   1.000000
    8       -5.197434   1.000000
    9       -5.155211   1.000000
   10       -5.150287   1.000000
   11       -4.209617   1.000000
   12       -4.202867   1.000000
   13       -3.019226   1.000000
   14       -2.955420   1.000000
   15       -2.734595   1.000000
   16       -2.709046   1.000000
   17       -2.243121   1.000000
   18       -2.172632   1.000000
   19        0.539601   0.000000
   20        0.596544   0.000000
   21        0.991923   0.000000
   22        1.012721   0.000000
   23        1.533500   0.000000
   24        1.582291   0.000000
   25        2.614239   0.000000
   26        2.649700   0.000000
 
 -0.2500000E+00 -0.8333333E-01  0.0000000E+00  0.6944444E-02
    1      -14.733496   1.000000
    2      -14.730772   1.000000
    3      -13.930604   1.000000
    4      -13.930234   1.000000
    5       -6.270865   1.000000
    6       -6.265438   1.000000
    7       -4.916201   1.000000
    8       -4.911316   1.000000
    9       -4.546293   1.000000
   10       -4.538136   1.000000
   11       -3.826619   1.000000
   12       -3.825438   1.000000
   13       -3.204088   1.000000
   14       -3.167475   1.000000
   15       -2.421481   1.000000
   16       -2.389919   1.000000
   17       -1.997410   1.000000
   18       -1.969738   1.000000
   19        0.602429   0.000000
   20        0.624886   0.000000
   21        1.035609   0.000000
   22        1.041882   0.000000
   23        1.153197   0.000000
   24        1.219992   0.000000
   25        2.288253   0.000000
   26        2.334313   0.000000
 
 -0.1666667E+00 -0.8333333E-01  0.0000000E+00  0.6944444E-02
    1      -15.085140   1.000000
    2      -15.084236   1.000000
    3      -14.109651   1.000000
    4      -14.109527   1.000000
    5       -6.571214   1.000000
    6       -6.569803   1.000000
    7       -4.408208   1.000000
    8       -4.398395   1.000000
    9       -4.016418   1.000000
   10       -4.016329   1.000000
   11       -3.496490   1.000000
   12       -3.474340   1.000000
   13       -3.262674   1.000000
   14       -3.252979   1.000000
   15       -2.356048   1.000000
   16       -2.327493   1.000000
   17       -1.693636   1.000000
   18       -1.688563   1.000000
   19        0.915294   0.000000
   20        0.927101   0.000000
   21        1.091694   0.000000
   22        1.141949   0.000000
   23        1.250168   0.000000
   24        1.278996   0.000000
   25        1.870532   0.000000
   26        1.919039   0.000000
 
 -0.8333333E-01 -0.8333333E-01  0.0000000E+00  0.6944444E-02
    1      -15.274961   1.000000
    2      -15.274961   1.000000
    3      -14.206836   1.000000
    4      -14.206836   1.000000
    5       -6.784522   1.000000
    6       -6.784522   1.000000
    7       -4.023999   1.000000
    8       -4.023999   1.000000
    9       -3.684188   1.000000
   10       -3.684188   1.000000
   11       -3.606014   1.000000
   12       -3.606014   1.000000
   13       -2.869854   1.000000
   14       -2.869854   1.000000
   15       -2.491537   1.000000
   16       -2.491537   1.000000
   17       -1.575477   1.000000
   18       -1.575477   1.000000
   19        1.248933   0.000000
   20        1.248933   0.000000
   21        1.295994   0.000000
   22        1.295995   0.000000
   23        1.455127   0.000000
   24        1.455130   0.000000
   25        1.596650   0.000000
   26        1.596655   0.000000
