       N       E                     dE             d eps       ncg     rms          rms(c)
DAV:   1     0.108887403737E+03    0.10889E+03   -0.59357E+03  7512   0.885E+02
DAV:   2    -0.971170238382E+01   -0.11860E+03   -0.11363E+03 10970   0.201E+02
DAV:   3    -0.214755725883E+02   -0.11764E+02   -0.11599E+02  9512   0.707E+01
DAV:   4    -0.217861134038E+02   -0.31054E+00   -0.30779E+00  9686   0.129E+01
DAV:   5    -0.217948800306E+02   -0.87666E-02   -0.87421E-02  9288   0.218E+00
DAV:   6    -0.217952144177E+02   -0.33439E-03   -0.33425E-03  9496   0.427E-01
DAV:   7    -0.217952282944E+02   -0.13877E-04   -0.13876E-04  9408   0.811E-02
DAV:   8    -0.217952290221E+02   -0.72768E-06   -0.72768E-06  8690   0.178E-02
   1 F= -.21795229E+02 E0= -.21795229E+02  d E =-.285660E-15  mag=     0.0000     0.0000    -0.0000
