 vasp.5.4.4.18Apr17-6-g9f103f2a35 (build Sep 13 2026 16:50:19) complex          
  
 executed on             MacIFC19 date 2026.09.20  22:17:45
 serial version


--------------------------------------------------------------------------------------------------------


 INCAR:
 POTCAR:    PAW_PBE Mo 08Apr2002                  
 POTCAR:    PAW_PBE S 06Sep2000                   
 POTCAR:    PAW_PBE Mo 08Apr2002                  
   VRHFIN =Mo: 4p5s4d                                                           
   LEXCH  = PE                                                                  
   EATOM  =   217.5176 eV,   15.9871 Ry                                         
                                                                                
   TITEL  = PAW_PBE Mo 08Apr2002                                                
   LULTRA =        F    use ultrasoft PP ?                                      
   IUNSCR =        1    unscreen: 0-lin 1-nonlin 2-no                           
   RPACOR =    2.200    partial core radius                                     
   POMASS =   95.940; ZVAL   =    6.000    mass and valenz                      
   RCORE  =    2.750    outmost cutoff radius                                   
   RWIGS  =    2.750; RWIGS  =    1.455    wigner-seitz radius (au A)           
   ENMAX  =  224.584; ENMIN  =  168.438 eV                                      
   RCLOC  =    2.111    cutoff for local pot                                    
   LCOR   =        T    correct aug charges                                     
   LPAW   =        T    paw PP                                                  
   EAUG   =  345.278                                                            
   DEXC   =    0.000                                                            
   RMAX   =    2.821    core radius for proj-oper                               
   RAUG   =    1.300    factor for augmentation sphere                          
   RDEP   =    2.815    radius for radial grids                                 
   RDEPT  =    2.211    core radius for aug-charge                              
                                                                                
   Atomic configuration                                                         
   12 entries                                                                   
     n  l   j            E        occ.                                          
     1  0  0.50    -19819.0341   2.0000                                         
     2  0  0.50     -2799.0127   2.0000                                         
     2  1  1.50     -2502.0276   6.0000                                         
     3  0  0.50      -476.4448   2.0000                                         
     3  1  1.50      -379.1496   6.0000                                         
     3  2  2.50      -220.9367  10.0000                                         
     4  0  0.50       -64.3378   2.0000                                         
     4  1  1.50       -38.4773   6.0000                                         
     4  2  2.50        -3.7535   5.0000                                         
     5  0  0.50        -4.0862   1.0000                                         
     5  1  0.50        -2.7701   0.0000                                         
     4  3  2.50        -1.3606   0.0000                                         
   Description                                                                  
     l       E           TYP  RCUT    TYP  RCUT                                 
     2     -3.7534765     23  2.500                                             
     2     -5.1140591     23  2.500                                             
     0     -4.0861560     23  2.600                                             
     0     13.6058260     23  2.600                                             
     1      5.4423304     23  2.750                                             
     1     27.2116520     23  2.750                                             
  local pseudopotential read in
  partial core-charges read in
  partial kinetic energy density read in
  atomic valenz-charges read in
  non local Contribution for L=           2  read in
    real space projection operators read in
  non local Contribution for L=           2  read in
    real space projection operators read in
  non local Contribution for L=           0  read in
    real space projection operators read in
  non local Contribution for L=           0  read in
    real space projection operators read in
  non local Contribution for L=           1  read in
    real space projection operators read in
  non local Contribution for L=           1  read in
    real space projection operators read in
    PAW grid and wavefunctions read in
 
   number of l-projection  operators is LMAX  =           6
   number of lm-projection operators is LMMAX =          18
 
 POTCAR:    PAW_PBE S 06Sep2000                   
   VRHFIN =S : s2p4                                                             
   LEXCH  = PE                                                                  
   EATOM  =   276.8230 eV,   20.3459 Ry                                         
                                                                                
   TITEL  = PAW_PBE S 06Sep2000                                                 
   LULTRA =        F    use ultrasoft PP ?                                      
   IUNSCR =        1    unscreen: 0-lin 1-nonlin 2-no                           
   RPACOR =    1.500    partial core radius                                     
   POMASS =   32.066; ZVAL   =    6.000    mass and valenz                      
   RCORE  =    1.900    outmost cutoff radius                                   
   RWIGS  =    2.200; RWIGS  =    1.164    wigner-seitz radius (au A)           
   ENMAX  =  258.689; ENMIN  =  194.016 eV                                      
   ICORE  =        2    local potential                                         
   LCOR   =        T    correct aug charges                                     
   LPAW   =        T    paw PP                                                  
   EAUG   =  335.092                                                            
   DEXC   =    0.000                                                            
   RMAX   =    1.942    core radius for proj-oper                               
   RAUG   =    1.300    factor for augmentation sphere                          
   RDEP   =    1.954    radius for radial grids                                 
   RDEPT  =    1.744    core radius for aug-charge                              
                                                                                
   Atomic configuration                                                         
    6 entries                                                                   
     n  l   j            E        occ.                                          
     1  0  0.50     -2405.8406   2.0000                                         
     2  0  0.50      -211.7007   2.0000                                         
     2  1  1.50      -156.4958   6.0000                                         
     3  0  0.50       -17.2562   2.0000                                         
     3  1  0.50        -7.0085   4.0000                                         
     3  2  1.50        -6.8029   0.0000                                         
   Description                                                                  
     l       E           TYP  RCUT    TYP  RCUT                                 
     0    -17.2561641     23  1.900                                             
     0    -15.8743224     23  1.900                                             
     1     -7.0085400     23  1.900                                             
     1     -2.7779785     23  1.900                                             
     2     -6.8029130     23  1.900                                             
  local pseudopotential read in
  partial core-charges read in
  partial kinetic energy density read in
  atomic valenz-charges read in
  non local Contribution for L=           0  read in
    real space projection operators read in
  non local Contribution for L=           0  read in
    real space projection operators read in
  non local Contribution for L=           1  read in
    real space projection operators read in
  non local Contribution for L=           1  read in
    real space projection operators read in
    PAW grid and wavefunctions read in
 
   number of l-projection  operators is LMAX  =           4
   number of lm-projection operators is LMMAX =           8
 
  PAW_PBE Mo 08Apr2002                  :
 energy of atom  1       EATOM= -217.5176
 kinetic energy error for atom=    0.0025 (will be added to EATOM!!)
  PAW_PBE S 06Sep2000                   :
 energy of atom  2       EATOM= -276.8230
 kinetic energy error for atom=    0.0046 (will be added to EATOM!!)
 
 
 POSCAR: 1H-MoS2                                 
  positions in direct lattice
  No initial velocities read in
 exchange correlation table for  LEXCH =        8
   RHO(1)=    0.500       N(1)  =     2000
   RHO(2)=  100.500       N(2)  =     4000
 


--------------------------------------------------------------------------------------------------------


 ion  position               nearest neighbor table
   1  0.000  0.000  0.500-   2 2.43   3 2.43   2 2.43   3 2.43   2 2.43   3 2.43
   2  0.333  0.333  0.606-   1 2.43   1 2.43   1 2.43
   3  0.333  0.333  0.394-   1 2.43   1 2.43   1 2.43
 

IMPORTANT INFORMATION: All symmetrisations will be switched off!
NOSYMM: (Re-)initialisation of all symmetry stuff for point group C_1.

 
 
 KPOINTS: MoS2 full mesh                          

Automatic generation of k-mesh.
Space group operators:
 irot       det(A)        alpha          n_x          n_y          n_z        tau_x        tau_y        tau_z
    1     1.000000     0.000000     1.000000     0.000000     0.000000     0.000000     0.000000     0.000000
 
 Subroutine IBZKPT returns following result:
 ===========================================
 
 Found    144 irreducible k-points:
 
 Following reciprocal coordinates:
            Coordinates               Weight
  0.000000  0.000000  0.000000      1.000000
  0.083333 -0.000000  0.000000      1.000000
  0.166667 -0.000000  0.000000      1.000000
  0.250000 -0.000000  0.000000      1.000000
  0.333333 -0.000000  0.000000      1.000000
  0.416667 -0.000000  0.000000      1.000000
  0.500000 -0.000000  0.000000      1.000000
 -0.416667  0.000000  0.000000      1.000000
 -0.333333  0.000000  0.000000      1.000000
 -0.250000  0.000000  0.000000      1.000000
 -0.166667  0.000000  0.000000      1.000000
 -0.083333  0.000000  0.000000      1.000000
  0.000000  0.083333  0.000000      1.000000
  0.083333  0.083333  0.000000      1.000000
  0.166667  0.083333  0.000000      1.000000
  0.250000  0.083333  0.000000      1.000000
  0.333333  0.083333  0.000000      1.000000
  0.416667  0.083333  0.000000      1.000000
  0.500000  0.083333  0.000000      1.000000
 -0.416667  0.083333  0.000000      1.000000
 -0.333333  0.083333  0.000000      1.000000
 -0.250000  0.083333  0.000000      1.000000
 -0.166667  0.083333  0.000000      1.000000
 -0.083333  0.083333  0.000000      1.000000
  0.000000  0.166667  0.000000      1.000000
  0.083333  0.166667  0.000000      1.000000
  0.166667  0.166667  0.000000      1.000000
  0.250000  0.166667  0.000000      1.000000
  0.333333  0.166667  0.000000      1.000000
  0.416667  0.166667  0.000000      1.000000
  0.500000  0.166667  0.000000      1.000000
 -0.416667  0.166667  0.000000      1.000000
 -0.333333  0.166667  0.000000      1.000000
 -0.250000  0.166667  0.000000      1.000000
 -0.166667  0.166667  0.000000      1.000000
 -0.083333  0.166667  0.000000      1.000000
  0.000000  0.250000  0.000000      1.000000
  0.083333  0.250000  0.000000      1.000000
  0.166667  0.250000  0.000000      1.000000
  0.250000  0.250000  0.000000      1.000000
  0.333333  0.250000  0.000000      1.000000
  0.416667  0.250000  0.000000      1.000000
  0.500000  0.250000  0.000000      1.000000
 -0.416667  0.250000  0.000000      1.000000
 -0.333333  0.250000  0.000000      1.000000
 -0.250000  0.250000  0.000000      1.000000
 -0.166667  0.250000  0.000000      1.000000
 -0.083333  0.250000  0.000000      1.000000
  0.000000  0.333333  0.000000      1.000000
  0.083333  0.333333  0.000000      1.000000
  0.166667  0.333333  0.000000      1.000000
  0.250000  0.333333  0.000000      1.000000
  0.333333  0.333333  0.000000      1.000000
  0.416667  0.333333  0.000000      1.000000
  0.500000  0.333333  0.000000      1.000000
 -0.416667  0.333333  0.000000      1.000000
 -0.333333  0.333333  0.000000      1.000000
 -0.250000  0.333333  0.000000      1.000000
 -0.166667  0.333333  0.000000      1.000000
 -0.083333  0.333333  0.000000      1.000000
  0.000000  0.416667  0.000000      1.000000
  0.083333  0.416667  0.000000      1.000000
  0.166667  0.416667  0.000000      1.000000
  0.250000  0.416667  0.000000      1.000000
  0.333333  0.416667  0.000000      1.000000
  0.416667  0.416667  0.000000      1.000000
  0.500000  0.416667  0.000000      1.000000
 -0.416667  0.416667  0.000000      1.000000
 -0.333333  0.416667  0.000000      1.000000
 -0.250000  0.416667  0.000000      1.000000
 -0.166667  0.416667  0.000000      1.000000
 -0.083333  0.416667  0.000000      1.000000
  0.000000  0.500000  0.000000      1.000000
  0.083333  0.500000  0.000000      1.000000
  0.166667  0.500000  0.000000      1.000000
  0.250000  0.500000  0.000000      1.000000
  0.333333  0.500000  0.000000      1.000000
  0.416667  0.500000  0.000000      1.000000
  0.500000  0.500000  0.000000      1.000000
 -0.416667  0.500000  0.000000      1.000000
 -0.333333  0.500000  0.000000      1.000000
 -0.250000  0.500000  0.000000      1.000000
 -0.166667  0.500000  0.000000      1.000000
 -0.083333  0.500000  0.000000      1.000000
  0.000000 -0.416667  0.000000      1.000000
  0.083333 -0.416667  0.000000      1.000000
  0.166667 -0.416667  0.000000      1.000000
  0.250000 -0.416667  0.000000      1.000000
  0.333333 -0.416667  0.000000      1.000000
  0.416667 -0.416667  0.000000      1.000000
  0.500000 -0.416667  0.000000      1.000000
 -0.416667 -0.416667  0.000000      1.000000
 -0.333333 -0.416667  0.000000      1.000000
 -0.250000 -0.416667  0.000000      1.000000
 -0.166667 -0.416667  0.000000      1.000000
 -0.083333 -0.416667  0.000000      1.000000
  0.000000 -0.333333  0.000000      1.000000
  0.083333 -0.333333  0.000000      1.000000
  0.166667 -0.333333  0.000000      1.000000
  0.250000 -0.333333  0.000000      1.000000
  0.333333 -0.333333  0.000000      1.000000
  0.416667 -0.333333  0.000000      1.000000
  0.500000 -0.333333  0.000000      1.000000
 -0.416667 -0.333333  0.000000      1.000000
 -0.333333 -0.333333  0.000000      1.000000
 -0.250000 -0.333333  0.000000      1.000000
 -0.166667 -0.333333  0.000000      1.000000
 -0.083333 -0.333333  0.000000      1.000000
  0.000000 -0.250000  0.000000      1.000000
  0.083333 -0.250000  0.000000      1.000000
  0.166667 -0.250000  0.000000      1.000000
  0.250000 -0.250000  0.000000      1.000000
  0.333333 -0.250000  0.000000      1.000000
  0.416667 -0.250000  0.000000      1.000000
  0.500000 -0.250000  0.000000      1.000000
 -0.416667 -0.250000  0.000000      1.000000
 -0.333333 -0.250000  0.000000      1.000000
 -0.250000 -0.250000  0.000000      1.000000
 -0.166667 -0.250000  0.000000      1.000000
 -0.083333 -0.250000  0.000000      1.000000
  0.000000 -0.166667  0.000000      1.000000
  0.083333 -0.166667  0.000000      1.000000
  0.166667 -0.166667  0.000000      1.000000
  0.250000 -0.166667  0.000000      1.000000
  0.333333 -0.166667  0.000000      1.000000
  0.416667 -0.166667  0.000000      1.000000
  0.500000 -0.166667  0.000000      1.000000
 -0.416667 -0.166667  0.000000      1.000000
 -0.333333 -0.166667  0.000000      1.000000
 -0.250000 -0.166667  0.000000      1.000000
 -0.166667 -0.166667  0.000000      1.000000
 -0.083333 -0.166667  0.000000      1.000000
  0.000000 -0.083333  0.000000      1.000000
  0.083333 -0.083333  0.000000      1.000000
  0.166667 -0.083333  0.000000      1.000000
  0.250000 -0.083333  0.000000      1.000000
  0.333333 -0.083333  0.000000      1.000000
  0.416667 -0.083333  0.000000      1.000000
  0.500000 -0.083333  0.000000      1.000000
 -0.416667 -0.083333  0.000000      1.000000
 -0.333333 -0.083333  0.000000      1.000000
 -0.250000 -0.083333  0.000000      1.000000
 -0.166667 -0.083333  0.000000      1.000000
 -0.083333 -0.083333  0.000000      1.000000
 
 Following cartesian coordinates:
            Coordinates               Weight
  0.000000  0.000000  0.000000      1.000000
  0.026275 -0.015170  0.000000      1.000000
  0.052549 -0.030339  0.000000      1.000000
  0.078824 -0.045509  0.000000      1.000000
  0.105098 -0.060679  0.000000      1.000000
  0.131373 -0.075848  0.000000      1.000000
  0.157647 -0.091018  0.000000      1.000000
 -0.131373  0.075848  0.000000      1.000000
 -0.105098  0.060679  0.000000      1.000000
 -0.078824  0.045509  0.000000      1.000000
 -0.052549  0.030339  0.000000      1.000000
 -0.026275  0.015170  0.000000      1.000000
  0.000000  0.030339  0.000000      1.000000
  0.026275  0.015170  0.000000      1.000000
  0.052549 -0.000000  0.000000      1.000000
  0.078824 -0.015170  0.000000      1.000000
  0.105098 -0.030339  0.000000      1.000000
  0.131373 -0.045509  0.000000      1.000000
  0.157647 -0.060679  0.000000      1.000000
 -0.131373  0.106187  0.000000      1.000000
 -0.105098  0.091018  0.000000      1.000000
 -0.078824  0.075848  0.000000      1.000000
 -0.052549  0.060679  0.000000      1.000000
 -0.026275  0.045509  0.000000      1.000000
  0.000000  0.060679  0.000000      1.000000
  0.026275  0.045509  0.000000      1.000000
  0.052549  0.030339  0.000000      1.000000
  0.078824  0.015170  0.000000      1.000000
  0.105098  0.000000  0.000000      1.000000
  0.131373 -0.015170  0.000000      1.000000
  0.157647 -0.030339  0.000000      1.000000
 -0.131373  0.136527  0.000000      1.000000
 -0.105098  0.121357  0.000000      1.000000
 -0.078824  0.106187  0.000000      1.000000
 -0.052549  0.091018  0.000000      1.000000
 -0.026275  0.075848  0.000000      1.000000
  0.000000  0.091018  0.000000      1.000000
  0.026275  0.075848  0.000000      1.000000
  0.052549  0.060679  0.000000      1.000000
  0.078824  0.045509  0.000000      1.000000
  0.105098  0.030339  0.000000      1.000000
  0.131373  0.015170  0.000000      1.000000
  0.157647  0.000000  0.000000      1.000000
 -0.131373  0.166866  0.000000      1.000000
 -0.105098  0.151696  0.000000      1.000000
 -0.078824  0.136527  0.000000      1.000000
 -0.052549  0.121357  0.000000      1.000000
 -0.026275  0.106187  0.000000      1.000000
  0.000000  0.121357  0.000000      1.000000
  0.026275  0.106187  0.000000      1.000000
  0.052549  0.091018  0.000000      1.000000
  0.078824  0.075848  0.000000      1.000000
  0.105098  0.060679  0.000000      1.000000
  0.131373  0.045509  0.000000      1.000000
  0.157647  0.030339  0.000000      1.000000
 -0.131373  0.197205  0.000000      1.000000
 -0.105098  0.182036  0.000000      1.000000
 -0.078824  0.166866  0.000000      1.000000
 -0.052549  0.151696  0.000000      1.000000
 -0.026275  0.136527  0.000000      1.000000
  0.000000  0.151696  0.000000      1.000000
  0.026275  0.136527  0.000000      1.000000
  0.052549  0.121357  0.000000      1.000000
  0.078824  0.106187  0.000000      1.000000
  0.105098  0.091018  0.000000      1.000000
  0.131373  0.075848  0.000000      1.000000
  0.157647  0.060679  0.000000      1.000000
 -0.131373  0.227544  0.000000      1.000000
 -0.105098  0.212375  0.000000      1.000000
 -0.078824  0.197205  0.000000      1.000000
 -0.052549  0.182036  0.000000      1.000000
 -0.026275  0.166866  0.000000      1.000000
  0.000000  0.182036  0.000000      1.000000
  0.026275  0.166866  0.000000      1.000000
  0.052549  0.151696  0.000000      1.000000
  0.078824  0.136527  0.000000      1.000000
  0.105098  0.121357  0.000000      1.000000
  0.131373  0.106187  0.000000      1.000000
  0.157647  0.091018  0.000000      1.000000
 -0.131373  0.257884  0.000000      1.000000
 -0.105098  0.242714  0.000000      1.000000
 -0.078824  0.227544  0.000000      1.000000
 -0.052549  0.212375  0.000000      1.000000
 -0.026275  0.197205  0.000000      1.000000
  0.000000 -0.151696  0.000000      1.000000
  0.026275 -0.166866  0.000000      1.000000
  0.052549 -0.182036  0.000000      1.000000
  0.078824 -0.197205  0.000000      1.000000
  0.105098 -0.212375  0.000000      1.000000
  0.131373 -0.227544  0.000000      1.000000
  0.157647 -0.242714  0.000000      1.000000
 -0.131373 -0.075848  0.000000      1.000000
 -0.105098 -0.091018  0.000000      1.000000
 -0.078824 -0.106187  0.000000      1.000000
 -0.052549 -0.121357  0.000000      1.000000
 -0.026275 -0.136527  0.000000      1.000000
  0.000000 -0.121357  0.000000      1.000000
  0.026275 -0.136527  0.000000      1.000000
  0.052549 -0.151696  0.000000      1.000000
  0.078824 -0.166866  0.000000      1.000000
  0.105098 -0.182036  0.000000      1.000000
  0.131373 -0.197205  0.000000      1.000000
  0.157647 -0.212375  0.000000      1.000000
 -0.131373 -0.045509  0.000000      1.000000
 -0.105098 -0.060679  0.000000      1.000000
 -0.078824 -0.075848  0.000000      1.000000
 -0.052549 -0.091018  0.000000      1.000000
 -0.026275 -0.106187  0.000000      1.000000
  0.000000 -0.091018  0.000000      1.000000
  0.026275 -0.106187  0.000000      1.000000
  0.052549 -0.121357  0.000000      1.000000
  0.078824 -0.136527  0.000000      1.000000
  0.105098 -0.151696  0.000000      1.000000
  0.131373 -0.166866  0.000000      1.000000
  0.157647 -0.182036  0.000000      1.000000
 -0.131373 -0.015170  0.000000      1.000000
 -0.105098 -0.030339  0.000000      1.000000
 -0.078824 -0.045509  0.000000      1.000000
 -0.052549 -0.060679  0.000000      1.000000
 -0.026275 -0.075848  0.000000      1.000000
  0.000000 -0.060679  0.000000      1.000000
  0.026275 -0.075848  0.000000      1.000000
  0.052549 -0.091018  0.000000      1.000000
  0.078824 -0.106187  0.000000      1.000000
  0.105098 -0.121357  0.000000      1.000000
  0.131373 -0.136527  0.000000      1.000000
  0.157647 -0.151696  0.000000      1.000000
 -0.131373  0.015170  0.000000      1.000000
 -0.105098 -0.000000  0.000000      1.000000
 -0.078824 -0.015170  0.000000      1.000000
 -0.052549 -0.030339  0.000000      1.000000
 -0.026275 -0.045509  0.000000      1.000000
  0.000000 -0.030339  0.000000      1.000000
  0.026275 -0.045509  0.000000      1.000000
  0.052549 -0.060679  0.000000      1.000000
  0.078824 -0.075848  0.000000      1.000000
  0.105098 -0.091018  0.000000      1.000000
  0.131373 -0.106187  0.000000      1.000000
  0.157647 -0.121357  0.000000      1.000000
 -0.131373  0.045509  0.000000      1.000000
 -0.105098  0.030339  0.000000      1.000000
 -0.078824  0.015170  0.000000      1.000000
 -0.052549  0.000000  0.000000      1.000000
 -0.026275 -0.015170  0.000000      1.000000
 


--------------------------------------------------------------------------------------------------------




 Dimension of arrays:
   k-points           NKPTS =    144   k-points in BZ     NKDIM =    144   number of bands    NBANDS=     26
   number of dos      NEDOS =    301   number of ions     NIONS =      3
   non local maximal  LDIM  =      6   non local SUM 2l+1 LMDIM =     18
   total plane-waves  NPLWV =  20480
   max r-space proj   IRMAX =      1   max aug-charges    IRDMAX=  10261
   dimension x,y,z NGX =    16 NGY =   16 NGZ =   80
   dimension x,y,z NGXF=    32 NGYF=   32 NGZF=  160
   support grid    NGXF=    32 NGYF=   32 NGZF=  160
   ions per type =               1   2
   NGX,Y,Z   is equivalent  to a cutoff of   8.39,  8.39,  8.87 a.u.
   NGXF,Y,Z  is equivalent  to a cutoff of  16.77, 16.77, 17.73 a.u.

 SYSTEM =  1H-MoS2 public-CHGCAR SOC NSCF          
 POSCAR =  1H-MoS2                                 

 Startparameter for this run:
   NWRITE =      2    write-flag & timer
   PREC   = normal    normal or accurate (medium, high low for compatibility)
   ISTART =      0    job   : 0-new  1-cont  2-samecut
   ICHARG =     11    charge: 1-file 2-atom 10-const
   ISPIN  =      1    spin polarized calculation?
   LNONCOLLINEAR =      T non collinear calculations
   LSORBIT =      T    spin-orbit coupling
   INIWAV =      1    electr: 0-lowe 1-rand  2-diag
   LASPH  =      F    aspherical Exc in radial PAW
   METAGGA=      F    non-selfconsistent MetaGGA calc.

 Electronic Relaxation 1
   ENCUT  =  400.0 eV  29.40 Ry    5.42 a.u.   5.17  5.17 24.46*2*pi/ulx,y,z
   ENINI  =  400.0     initial cutoff
   ENAUG  =  345.3 eV  augmentation charge cutoff
   NELM   =    200;   NELMIN=  2; NELMDL= -5     # of ELM steps 
   EDIFF  = 0.1E-05   stopping-criterion for ELM
   LREAL  =      F    real-space projection
   NLSPLINE    = F    spline interpolate recip. space projectors
   LCOMPAT=      F    compatible to vasp.4.4
   GGA_COMPAT  = F    GGA compatible to vasp.4.4-vasp.4.6
   LMAXPAW     = -100 max onsite density
   LMAXMIX     =    2 max onsite mixed and CHGCAR
   VOSKOWN=      0    Vosko Wilk Nusair interpolation
   ROPT   =    0.00000   0.00000
 Ionic relaxation
   EDIFFG = 0.1E-04   stopping-criterion for IOM
   NSW    =      0    number of steps for IOM
   NBLOCK =      1;   KBLOCK =      1    inner block; outer block 
   IBRION =     -1    ionic relax: 0-MD 1-quasi-New 2-CG
   NFREE  =      0    steps in history (QN), initial steepest desc. (CG)
   ISIF   =      2    stress and relaxation
   IWAVPR =      0    prediction:  0-non 1-charg 2-wave 3-comb
   ISYM   =     -1    0-nonsym 1-usesym 2-fastsym
   LCORR  =      T    Harris-Foulkes like correction to forces

   POTIM  = 0.5000    time-step for ionic-motion
   TEIN   =    0.0    initial temperature
   TEBEG  =    0.0;   TEEND  =   0.0 temperature during run
   SMASS  =  -3.00    Nose mass-parameter (am)
   estimated Nose-frequenzy (Omega)   =  0.10E-29 period in steps =****** mass=  -0.230E-27a.u.
   SCALEE = 1.0000    scale energy and forces
   NPACO  =    256;   APACO  = 16.0  distance and # of slots for P.C.
   PSTRESS=    0.0 pullay stress

  Mass of Ions in am
   POMASS =  95.94 32.07
  Ionic Valenz
   ZVAL   =   6.00  6.00
  Atomic Wigner-Seitz radii
   RWIGS  =  -1.00 -1.00
  virtual crystal weights 
   VCA    =   1.00  1.00
   NELECT =      18.0000    total number of electrons
   NUPDOWN=      -1.0000    fix difference up-down

 DOS related values:
   EMIN   =  10.00;   EMAX   =-10.00  energy-range for DOS
   EFERMI =   0.00
   ISMEAR =     0;   SIGMA  =   0.02  broadening in eV -4-tet -1-fermi 0-gaus

 Electronic relaxation 2 (details)
   IALGO  =     38    algorithm
   LDIAG  =      T    sub-space diagonalisation (order eigenvalues)
   LSUBROT=      F    optimize rotation matrix (better conditioning)
   TURBO    =      0    0=normal 1=particle mesh
   IRESTART =      0    0=no restart 2=restart with 2 vectors
   NREBOOT  =      0    no. of reboots
   NMIN     =      0    reboot dimension
   EREF     =   0.00    reference energy to select bands
   IMIX   =      4    mixing-type and parameters
     AMIX     =   0.40;   BMIX     =  1.00
     AMIX_MAG =   1.60;   BMIX_MAG =  1.00
     AMIN     =   0.10
     WC   =   100.;   INIMIX=   1;  MIXPRE=   1;  MAXMIX= -45

 Intra band minimization:
   WEIMIN = 0.0000     energy-eigenvalue tresh-hold
   EBREAK =  0.96E-08  absolut break condition
   DEPER  =   0.30     relativ break condition  

   TIME   =   0.40     timestep for ELM

  volume/ion in A,a.u.               =      43.56       293.94
  Fermi-wavevector in a.u.,A,eV,Ry     =   0.845479  1.597724  9.725923  0.714835
  Thomas-Fermi vector in A             =   1.960674
 
 Write flags
   LWAVE        =      T    write WAVECAR
   LDOWNSAMPLE  =      F    k-point downsampling of WAVECAR
   LCHARG       =      F    write CHGCAR
   LVTOT        =      F    write LOCPOT, total local potential
   LVHAR        =      F    write LOCPOT, Hartree potential only
   LELF         =      F    write electronic localiz. function (ELF)
   LORBIT       =      0    0 simple, 1 ext, 2 COOP (PROOUT), +10 PAW based schemes


 Dipole corrections
   LMONO  =      F    monopole corrections only (constant potential shift)
   LDIPOL =      F    correct potential (dipole corrections)
   IDIPOL =      0    1-x, 2-y, 3-z, 4-all directions 
   EPSILON=  1.0000000 bulk dielectric constant

 Exchange correlation treatment:
   GGA     =    --    GGA type
   LEXCH   =     8    internal setting for exchange type
   VOSKOWN=      0    Vosko Wilk Nusair interpolation
   LHFCALC =     F    Hartree Fock is set to
   LHFONE  =     F    Hartree Fock one center treatment
   AEXX    =    0.0000 exact exchange contribution

 Linear response parameters
   LEPSILON=     F    determine dielectric tensor
   LRPA    =     F    only Hartree local field effects (RPA)
   LNABLA  =     F    use nabla operator in PAW spheres
   LVEL    =     F    velocity operator in full k-point grid
   LINTERFAST=   F  fast interpolation
   KINTER  =     0    interpolate to denser k-point grid
   CSHIFT  =0.1000    complex shift for real part using Kramers Kronig
   OMEGAMAX=  -1.0    maximum frequency
   DEG_THRESHOLD= 0.2000000E-02 threshold for treating states as degnerate
   RTIME   =   -0.100 relaxation time in fs
  (WPLASMAI=    0.000 imaginary part of plasma frequency in eV, 0.658/RTIME)
   DFIELD  = 0.0000000 0.0000000 0.0000000 field for delta impulse in time
 
 Orbital magnetization related:
   ORBITALMAG=     F  switch on orbital magnetization
   LCHIMAG   =     F  perturbation theory with respect to B field
   DQ        =  0.001000  dq finite difference perturbation B field
   LLRAUG    =     F  two centre corrections for induced B field



--------------------------------------------------------------------------------------------------------


 Static calculation
 charge density and potential remain constant during run
 non collinear spin polarized calculation
 Variant of blocked Davidson
 Davidson routine will perform the subspace rotation
 perform sub-space diagonalisation
    after iterative eigenvector-optimisation
 no mixing
 using additional bands           17
 reciprocal scheme for non local part
 use partial core corrections
 calculate Harris-corrections to forces 
   (improved forces if not selfconsistent)
 use gradient corrections 
 WARNING: stress and forces are not correct
  (second derivative of E(xc) not defined)
 use of overlap-Matrix (Vanderbilt PP)
 Gauss-broadening in eV      SIGMA  =   0.02


--------------------------------------------------------------------------------------------------------


  energy-cutoff  :      400.00
  volume of cell :      130.67
      direct lattice vectors                 reciprocal lattice vectors
     3.171634303  0.000000000  0.000000000     0.315294862 -0.182035573  0.000000000
     1.585817152  2.746715878  0.000000000     0.000000000  0.364071147  0.000000000
     0.000000000  0.000000000 15.000000000     0.000000000 -0.000000000  0.066666667

  length of vectors
     3.171634303  3.171634303 15.000000000     0.364071147  0.364071147  0.066666667


 
 k-points in units of 2pi/SCALE and weight: MoS2 full mesh                          
   0.00000000  0.00000000  0.00000000       0.007
   0.02627457 -0.01516963  0.00000000       0.007
   0.05254914 -0.03033926  0.00000000       0.007
   0.07882372 -0.04550889  0.00000000       0.007
   0.10509829 -0.06067852  0.00000000       0.007
   0.13137286 -0.07584816  0.00000000       0.007
   0.15764743 -0.09101779  0.00000000       0.007
  -0.13137286  0.07584816  0.00000000       0.007
  -0.10509829  0.06067852  0.00000000       0.007
  -0.07882372  0.04550889  0.00000000       0.007
  -0.05254914  0.03033926  0.00000000       0.007
  -0.02627457  0.01516963  0.00000000       0.007
   0.00000000  0.03033926  0.00000000       0.007
   0.02627457  0.01516963  0.00000000       0.007
   0.05254914 -0.00000000  0.00000000       0.007
   0.07882372 -0.01516963  0.00000000       0.007
   0.10509829 -0.03033926  0.00000000       0.007
   0.13137286 -0.04550889  0.00000000       0.007
   0.15764743 -0.06067852  0.00000000       0.007
  -0.13137286  0.10618742  0.00000000       0.007
  -0.10509829  0.09101779  0.00000000       0.007
  -0.07882372  0.07584816  0.00000000       0.007
  -0.05254914  0.06067852  0.00000000       0.007
  -0.02627457  0.04550889  0.00000000       0.007
   0.00000000  0.06067852  0.00000000       0.007
   0.02627457  0.04550889  0.00000000       0.007
   0.05254914  0.03033926  0.00000000       0.007
   0.07882372  0.01516963  0.00000000       0.007
   0.10509829  0.00000000  0.00000000       0.007
   0.13137286 -0.01516963  0.00000000       0.007
   0.15764743 -0.03033926  0.00000000       0.007
  -0.13137286  0.13652668  0.00000000       0.007
  -0.10509829  0.12135705  0.00000000       0.007
  -0.07882372  0.10618742  0.00000000       0.007
  -0.05254914  0.09101779  0.00000000       0.007
  -0.02627457  0.07584816  0.00000000       0.007
   0.00000000  0.09101779  0.00000000       0.007
   0.02627457  0.07584816  0.00000000       0.007
   0.05254914  0.06067852  0.00000000       0.007
   0.07882372  0.04550889  0.00000000       0.007
   0.10509829  0.03033926  0.00000000       0.007
   0.13137286  0.01516963  0.00000000       0.007
   0.15764743  0.00000000  0.00000000       0.007
  -0.13137286  0.16686594  0.00000000       0.007
  -0.10509829  0.15169631  0.00000000       0.007
  -0.07882372  0.13652668  0.00000000       0.007
  -0.05254914  0.12135705  0.00000000       0.007
  -0.02627457  0.10618742  0.00000000       0.007
   0.00000000  0.12135705  0.00000000       0.007
   0.02627457  0.10618742  0.00000000       0.007
   0.05254914  0.09101779  0.00000000       0.007
   0.07882372  0.07584816  0.00000000       0.007
   0.10509829  0.06067852  0.00000000       0.007
   0.13137286  0.04550889  0.00000000       0.007
   0.15764743  0.03033926  0.00000000       0.007
  -0.13137286  0.19720520  0.00000000       0.007
  -0.10509829  0.18203557  0.00000000       0.007
  -0.07882372  0.16686594  0.00000000       0.007
  -0.05254914  0.15169631  0.00000000       0.007
  -0.02627457  0.13652668  0.00000000       0.007
   0.00000000  0.15169631  0.00000000       0.007
   0.02627457  0.13652668  0.00000000       0.007
   0.05254914  0.12135705  0.00000000       0.007
   0.07882372  0.10618742  0.00000000       0.007
   0.10509829  0.09101779  0.00000000       0.007
   0.13137286  0.07584816  0.00000000       0.007
   0.15764743  0.06067852  0.00000000       0.007
  -0.13137286  0.22754447  0.00000000       0.007
  -0.10509829  0.21237484  0.00000000       0.007
  -0.07882372  0.19720520  0.00000000       0.007
  -0.05254914  0.18203557  0.00000000       0.007
  -0.02627457  0.16686594  0.00000000       0.007
   0.00000000  0.18203557  0.00000000       0.007
   0.02627457  0.16686594  0.00000000       0.007
   0.05254914  0.15169631  0.00000000       0.007
   0.07882372  0.13652668  0.00000000       0.007
   0.10509829  0.12135705  0.00000000       0.007
   0.13137286  0.10618742  0.00000000       0.007
   0.15764743  0.09101779  0.00000000       0.007
  -0.13137286  0.25788373  0.00000000       0.007
  -0.10509829  0.24271410  0.00000000       0.007
  -0.07882372  0.22754447  0.00000000       0.007
  -0.05254914  0.21237484  0.00000000       0.007
  -0.02627457  0.19720520  0.00000000       0.007
   0.00000000 -0.15169631  0.00000000       0.007
   0.02627457 -0.16686594  0.00000000       0.007
   0.05254914 -0.18203557  0.00000000       0.007
   0.07882372 -0.19720520  0.00000000       0.007
   0.10509829 -0.21237484  0.00000000       0.007
   0.13137286 -0.22754447  0.00000000       0.007
   0.15764743 -0.24271410  0.00000000       0.007
  -0.13137286 -0.07584816  0.00000000       0.007
  -0.10509829 -0.09101779  0.00000000       0.007
  -0.07882372 -0.10618742  0.00000000       0.007
  -0.05254914 -0.12135705  0.00000000       0.007
  -0.02627457 -0.13652668  0.00000000       0.007
   0.00000000 -0.12135705  0.00000000       0.007
   0.02627457 -0.13652668  0.00000000       0.007
   0.05254914 -0.15169631  0.00000000       0.007
   0.07882372 -0.16686594  0.00000000       0.007
   0.10509829 -0.18203557  0.00000000       0.007
   0.13137286 -0.19720520  0.00000000       0.007
   0.15764743 -0.21237484  0.00000000       0.007
  -0.13137286 -0.04550889  0.00000000       0.007
  -0.10509829 -0.06067852  0.00000000       0.007
  -0.07882372 -0.07584816  0.00000000       0.007
  -0.05254914 -0.09101779  0.00000000       0.007
  -0.02627457 -0.10618742  0.00000000       0.007
   0.00000000 -0.09101779  0.00000000       0.007
   0.02627457 -0.10618742  0.00000000       0.007
   0.05254914 -0.12135705  0.00000000       0.007
   0.07882372 -0.13652668  0.00000000       0.007
   0.10509829 -0.15169631  0.00000000       0.007
   0.13137286 -0.16686594  0.00000000       0.007
   0.15764743 -0.18203557  0.00000000       0.007
  -0.13137286 -0.01516963  0.00000000       0.007
  -0.10509829 -0.03033926  0.00000000       0.007
  -0.07882372 -0.04550889  0.00000000       0.007
  -0.05254914 -0.06067852  0.00000000       0.007
  -0.02627457 -0.07584816  0.00000000       0.007
   0.00000000 -0.06067852  0.00000000       0.007
   0.02627457 -0.07584816  0.00000000       0.007
   0.05254914 -0.09101779  0.00000000       0.007
   0.07882372 -0.10618742  0.00000000       0.007
   0.10509829 -0.12135705  0.00000000       0.007
   0.13137286 -0.13652668  0.00000000       0.007
   0.15764743 -0.15169631  0.00000000       0.007
  -0.13137286  0.01516963  0.00000000       0.007
  -0.10509829 -0.00000000  0.00000000       0.007
  -0.07882372 -0.01516963  0.00000000       0.007
  -0.05254914 -0.03033926  0.00000000       0.007
  -0.02627457 -0.04550889  0.00000000       0.007
   0.00000000 -0.03033926  0.00000000       0.007
   0.02627457 -0.04550889  0.00000000       0.007
   0.05254914 -0.06067852  0.00000000       0.007
   0.07882372 -0.07584816  0.00000000       0.007
   0.10509829 -0.09101779  0.00000000       0.007
   0.13137286 -0.10618742  0.00000000       0.007
   0.15764743 -0.12135705  0.00000000       0.007
  -0.13137286  0.04550889  0.00000000       0.007
  -0.10509829  0.03033926  0.00000000       0.007
  -0.07882372  0.01516963  0.00000000       0.007
  -0.05254914  0.00000000  0.00000000       0.007
  -0.02627457 -0.01516963  0.00000000       0.007
 
 k-points in reciprocal lattice and weights: MoS2 full mesh                          
   0.00000000  0.00000000  0.00000000       0.007
   0.08333333 -0.00000000  0.00000000       0.007
   0.16666667 -0.00000000  0.00000000       0.007
   0.25000000 -0.00000000  0.00000000       0.007
   0.33333333 -0.00000000  0.00000000       0.007
   0.41666667 -0.00000000  0.00000000       0.007
   0.50000000 -0.00000000  0.00000000       0.007
  -0.41666667  0.00000000  0.00000000       0.007
  -0.33333333  0.00000000  0.00000000       0.007
  -0.25000000  0.00000000  0.00000000       0.007
  -0.16666667  0.00000000  0.00000000       0.007
  -0.08333333  0.00000000  0.00000000       0.007
   0.00000000  0.08333333  0.00000000       0.007
   0.08333333  0.08333333  0.00000000       0.007
   0.16666667  0.08333333  0.00000000       0.007
   0.25000000  0.08333333  0.00000000       0.007
   0.33333333  0.08333333  0.00000000       0.007
   0.41666667  0.08333333  0.00000000       0.007
   0.50000000  0.08333333  0.00000000       0.007
  -0.41666667  0.08333333  0.00000000       0.007
  -0.33333333  0.08333333  0.00000000       0.007
  -0.25000000  0.08333333  0.00000000       0.007
  -0.16666667  0.08333333  0.00000000       0.007
  -0.08333333  0.08333333  0.00000000       0.007
   0.00000000  0.16666667  0.00000000       0.007
   0.08333333  0.16666667  0.00000000       0.007
   0.16666667  0.16666667  0.00000000       0.007
   0.25000000  0.16666667  0.00000000       0.007
   0.33333333  0.16666667  0.00000000       0.007
   0.41666667  0.16666667  0.00000000       0.007
   0.50000000  0.16666667  0.00000000       0.007
  -0.41666667  0.16666667  0.00000000       0.007
  -0.33333333  0.16666667  0.00000000       0.007
  -0.25000000  0.16666667  0.00000000       0.007
  -0.16666667  0.16666667  0.00000000       0.007
  -0.08333333  0.16666667  0.00000000       0.007
   0.00000000  0.25000000  0.00000000       0.007
   0.08333333  0.25000000  0.00000000       0.007
   0.16666667  0.25000000  0.00000000       0.007
   0.25000000  0.25000000  0.00000000       0.007
   0.33333333  0.25000000  0.00000000       0.007
   0.41666667  0.25000000  0.00000000       0.007
   0.50000000  0.25000000  0.00000000       0.007
  -0.41666667  0.25000000  0.00000000       0.007
  -0.33333333  0.25000000  0.00000000       0.007
  -0.25000000  0.25000000  0.00000000       0.007
  -0.16666667  0.25000000  0.00000000       0.007
  -0.08333333  0.25000000  0.00000000       0.007
   0.00000000  0.33333333  0.00000000       0.007
   0.08333333  0.33333333  0.00000000       0.007
   0.16666667  0.33333333  0.00000000       0.007
   0.25000000  0.33333333  0.00000000       0.007
   0.33333333  0.33333333  0.00000000       0.007
   0.41666667  0.33333333  0.00000000       0.007
   0.50000000  0.33333333  0.00000000       0.007
  -0.41666667  0.33333333  0.00000000       0.007
  -0.33333333  0.33333333  0.00000000       0.007
  -0.25000000  0.33333333  0.00000000       0.007
  -0.16666667  0.33333333  0.00000000       0.007
  -0.08333333  0.33333333  0.00000000       0.007
   0.00000000  0.41666667  0.00000000       0.007
   0.08333333  0.41666667  0.00000000       0.007
   0.16666667  0.41666667  0.00000000       0.007
   0.25000000  0.41666667  0.00000000       0.007
   0.33333333  0.41666667  0.00000000       0.007
   0.41666667  0.41666667  0.00000000       0.007
   0.50000000  0.41666667  0.00000000       0.007
  -0.41666667  0.41666667  0.00000000       0.007
  -0.33333333  0.41666667  0.00000000       0.007
  -0.25000000  0.41666667  0.00000000       0.007
  -0.16666667  0.41666667  0.00000000       0.007
  -0.08333333  0.41666667  0.00000000       0.007
   0.00000000  0.50000000  0.00000000       0.007
   0.08333333  0.50000000  0.00000000       0.007
   0.16666667  0.50000000  0.00000000       0.007
   0.25000000  0.50000000  0.00000000       0.007
   0.33333333  0.50000000  0.00000000       0.007
   0.41666667  0.50000000  0.00000000       0.007
   0.50000000  0.50000000  0.00000000       0.007
  -0.41666667  0.50000000  0.00000000       0.007
  -0.33333333  0.50000000  0.00000000       0.007
  -0.25000000  0.50000000  0.00000000       0.007
  -0.16666667  0.50000000  0.00000000       0.007
  -0.08333333  0.50000000  0.00000000       0.007
   0.00000000 -0.41666667  0.00000000       0.007
   0.08333333 -0.41666667  0.00000000       0.007
   0.16666667 -0.41666667  0.00000000       0.007
   0.25000000 -0.41666667  0.00000000       0.007
   0.33333333 -0.41666667  0.00000000       0.007
   0.41666667 -0.41666667  0.00000000       0.007
   0.50000000 -0.41666667  0.00000000       0.007
  -0.41666667 -0.41666667  0.00000000       0.007
  -0.33333333 -0.41666667  0.00000000       0.007
  -0.25000000 -0.41666667  0.00000000       0.007
  -0.16666667 -0.41666667  0.00000000       0.007
  -0.08333333 -0.41666667  0.00000000       0.007
   0.00000000 -0.33333333  0.00000000       0.007
   0.08333333 -0.33333333  0.00000000       0.007
   0.16666667 -0.33333333  0.00000000       0.007
   0.25000000 -0.33333333  0.00000000       0.007
   0.33333333 -0.33333333  0.00000000       0.007
   0.41666667 -0.33333333  0.00000000       0.007
   0.50000000 -0.33333333  0.00000000       0.007
  -0.41666667 -0.33333333  0.00000000       0.007
  -0.33333333 -0.33333333  0.00000000       0.007
  -0.25000000 -0.33333333  0.00000000       0.007
  -0.16666667 -0.33333333  0.00000000       0.007
  -0.08333333 -0.33333333  0.00000000       0.007
   0.00000000 -0.25000000  0.00000000       0.007
   0.08333333 -0.25000000  0.00000000       0.007
   0.16666667 -0.25000000  0.00000000       0.007
   0.25000000 -0.25000000  0.00000000       0.007
   0.33333333 -0.25000000  0.00000000       0.007
   0.41666667 -0.25000000  0.00000000       0.007
   0.50000000 -0.25000000  0.00000000       0.007
  -0.41666667 -0.25000000  0.00000000       0.007
  -0.33333333 -0.25000000  0.00000000       0.007
  -0.25000000 -0.25000000  0.00000000       0.007
  -0.16666667 -0.25000000  0.00000000       0.007
  -0.08333333 -0.25000000  0.00000000       0.007
   0.00000000 -0.16666667  0.00000000       0.007
   0.08333333 -0.16666667  0.00000000       0.007
   0.16666667 -0.16666667  0.00000000       0.007
   0.25000000 -0.16666667  0.00000000       0.007
   0.33333333 -0.16666667  0.00000000       0.007
   0.41666667 -0.16666667  0.00000000       0.007
   0.50000000 -0.16666667  0.00000000       0.007
  -0.41666667 -0.16666667  0.00000000       0.007
  -0.33333333 -0.16666667  0.00000000       0.007
  -0.25000000 -0.16666667  0.00000000       0.007
  -0.16666667 -0.16666667  0.00000000       0.007
  -0.08333333 -0.16666667  0.00000000       0.007
   0.00000000 -0.08333333  0.00000000       0.007
   0.08333333 -0.08333333  0.00000000       0.007
   0.16666667 -0.08333333  0.00000000       0.007
   0.25000000 -0.08333333  0.00000000       0.007
   0.33333333 -0.08333333  0.00000000       0.007
   0.41666667 -0.08333333  0.00000000       0.007
   0.50000000 -0.08333333  0.00000000       0.007
  -0.41666667 -0.08333333  0.00000000       0.007
  -0.33333333 -0.08333333  0.00000000       0.007
  -0.25000000 -0.08333333  0.00000000       0.007
  -0.16666667 -0.08333333  0.00000000       0.007
  -0.08333333 -0.08333333  0.00000000       0.007
 
 position of ions in fractional coordinates (direct lattice) 
   0.00000000  0.00000000  0.50000000
   0.33333333  0.33333333  0.60645737
   0.33333333  0.33333333  0.39354263
 
 position of ions in cartesian coordinates  (Angst):
   0.00000000  0.00000000  7.50000000
   1.58581715  0.91557196  9.09686056
   1.58581715  0.91557196  5.90313944
 
 Euler angles ALPHA=     0.0000000  BETA=     0.0000000

 transformation matrix from SAXIS to cartesian coordinates
 ---------------------------------------------------------
     1.0000000 m_x     0.0000000 m_y     0.0000000 m_z
     0.0000000 m_x     1.0000000 m_y     0.0000000 m_z
     0.0000000 m_x     0.0000000 m_y     1.0000000 m_z

 transformation matrix from cartesian coordinates to SAXIS
 ---------------------------------------------------------
     1.0000000 m_x     0.0000000 m_y     0.0000000 m_z
     0.0000000 m_x     1.0000000 m_y     0.0000000 m_z
     0.0000000 m_x     0.0000000 m_y     1.0000000 m_z




--------------------------------------------------------------------------------------------------------


 k-point  1 :   0.0000 0.0000 0.0000  plane waves:    4706
 k-point  2 :   0.0833-0.0000 0.0000  plane waves:    4686
 k-point  3 :   0.1667-0.0000 0.0000  plane waves:    4710
 k-point  4 :   0.2500-0.0000 0.0000  plane waves:    4742
 k-point  5 :   0.3333-0.0000 0.0000  plane waves:    4762
 k-point  6 :   0.4167-0.0000 0.0000  plane waves:    4778
 k-point  7 :   0.5000-0.0000 0.0000  plane waves:    4788
 k-point  8 :  -0.4167 0.0000 0.0000  plane waves:    4778
 k-point  9 :  -0.3333 0.0000 0.0000  plane waves:    4762
 k-point 10 :  -0.2500 0.0000 0.0000  plane waves:    4742
 k-point 11 :  -0.1667 0.0000 0.0000  plane waves:    4710
 k-point 12 :  -0.0833 0.0000 0.0000  plane waves:    4686
 k-point 13 :   0.0000 0.0833 0.0000  plane waves:    4686
 k-point 14 :   0.0833 0.0833 0.0000  plane waves:    4686
 k-point 15 :   0.1667 0.0833 0.0000  plane waves:    4702
 k-point 16 :   0.2500 0.0833 0.0000  plane waves:    4726
 k-point 17 :   0.3333 0.0833 0.0000  plane waves:    4756
 k-point 18 :   0.4167 0.0833 0.0000  plane waves:    4778
 k-point 19 :   0.5000 0.0833 0.0000  plane waves:    4766
 k-point 20 :  -0.4167 0.0833 0.0000  plane waves:    4766
 k-point 21 :  -0.3333 0.0833 0.0000  plane waves:    4778
 k-point 22 :  -0.2500 0.0833 0.0000  plane waves:    4756
 k-point 23 :  -0.1667 0.0833 0.0000  plane waves:    4726
 k-point 24 :  -0.0833 0.0833 0.0000  plane waves:    4702
 k-point 25 :   0.0000 0.1667 0.0000  plane waves:    4710
 k-point 26 :   0.0833 0.1667 0.0000  plane waves:    4702
 k-point 27 :   0.1667 0.1667 0.0000  plane waves:    4710
 k-point 28 :   0.2500 0.1667 0.0000  plane waves:    4726
 k-point 29 :   0.3333 0.1667 0.0000  plane waves:    4726
 k-point 30 :   0.4167 0.1667 0.0000  plane waves:    4740
 k-point 31 :   0.5000 0.1667 0.0000  plane waves:    4762
 k-point 32 :  -0.4167 0.1667 0.0000  plane waves:    4772
 k-point 33 :  -0.3333 0.1667 0.0000  plane waves:    4762
 k-point 34 :  -0.2500 0.1667 0.0000  plane waves:    4740
 k-point 35 :  -0.1667 0.1667 0.0000  plane waves:    4726
 k-point 36 :  -0.0833 0.1667 0.0000  plane waves:    4726
 k-point 37 :   0.0000 0.2500 0.0000  plane waves:    4742
 k-point 38 :   0.0833 0.2500 0.0000  plane waves:    4726
 k-point 39 :   0.1667 0.2500 0.0000  plane waves:    4726
 k-point 40 :   0.2500 0.2500 0.0000  plane waves:    4742
 k-point 41 :   0.3333 0.2500 0.0000  plane waves:    4756
 k-point 42 :   0.4167 0.2500 0.0000  plane waves:    4740
 k-point 43 :   0.5000 0.2500 0.0000  plane waves:    4750
 k-point 44 :  -0.4167 0.2500 0.0000  plane waves:    4744
 k-point 45 :  -0.3333 0.2500 0.0000  plane waves:    4744
 k-point 46 :  -0.2500 0.2500 0.0000  plane waves:    4750
 k-point 47 :  -0.1667 0.2500 0.0000  plane waves:    4740
 k-point 48 :  -0.0833 0.2500 0.0000  plane waves:    4756
 k-point 49 :   0.0000 0.3333 0.0000  plane waves:    4762
 k-point 50 :   0.0833 0.3333 0.0000  plane waves:    4756
 k-point 51 :   0.1667 0.3333 0.0000  plane waves:    4726
 k-point 52 :   0.2500 0.3333 0.0000  plane waves:    4756
 k-point 53 :   0.3333 0.3333 0.0000  plane waves:    4762
 k-point 54 :   0.4167 0.3333 0.0000  plane waves:    4778
 k-point 55 :   0.5000 0.3333 0.0000  plane waves:    4762
 k-point 56 :  -0.4167 0.3333 0.0000  plane waves:    4744
 k-point 57 :  -0.3333 0.3333 0.0000  plane waves:    4734
 k-point 58 :  -0.2500 0.3333 0.0000  plane waves:    4744
 k-point 59 :  -0.1667 0.3333 0.0000  plane waves:    4762
 k-point 60 :  -0.0833 0.3333 0.0000  plane waves:    4778
 k-point 61 :   0.0000 0.4167 0.0000  plane waves:    4778
 k-point 62 :   0.0833 0.4167 0.0000  plane waves:    4778
 k-point 63 :   0.1667 0.4167 0.0000  plane waves:    4740
 k-point 64 :   0.2500 0.4167 0.0000  plane waves:    4740
 k-point 65 :   0.3333 0.4167 0.0000  plane waves:    4778
 k-point 66 :   0.4167 0.4167 0.0000  plane waves:    4778
 k-point 67 :   0.5000 0.4167 0.0000  plane waves:    4766
 k-point 68 :  -0.4167 0.4167 0.0000  plane waves:    4772
 k-point 69 :  -0.3333 0.4167 0.0000  plane waves:    4744
 k-point 70 :  -0.2500 0.4167 0.0000  plane waves:    4744
 k-point 71 :  -0.1667 0.4167 0.0000  plane waves:    4772
 k-point 72 :  -0.0833 0.4167 0.0000  plane waves:    4766
 k-point 73 :   0.0000 0.5000 0.0000  plane waves:    4788
 k-point 74 :   0.0833 0.5000 0.0000  plane waves:    4766
 k-point 75 :   0.1667 0.5000 0.0000  plane waves:    4762
 k-point 76 :   0.2500 0.5000 0.0000  plane waves:    4750
 k-point 77 :   0.3333 0.5000 0.0000  plane waves:    4762
 k-point 78 :   0.4167 0.5000 0.0000  plane waves:    4766
 k-point 79 :   0.5000 0.5000 0.0000  plane waves:    4788
 k-point 80 :  -0.4167 0.5000 0.0000  plane waves:    4766
 k-point 81 :  -0.3333 0.5000 0.0000  plane waves:    4762
 k-point 82 :  -0.2500 0.5000 0.0000  plane waves:    4750
 k-point 83 :  -0.1667 0.5000 0.0000  plane waves:    4762
 k-point 84 :  -0.0833 0.5000 0.0000  plane waves:    4766
 k-point 85 :   0.0000-0.4167 0.0000  plane waves:    4778
 k-point 86 :   0.0833-0.4167 0.0000  plane waves:    4766
 k-point 87 :   0.1667-0.4167 0.0000  plane waves:    4772
 k-point 88 :   0.2500-0.4167 0.0000  plane waves:    4744
 k-point 89 :   0.3333-0.4167 0.0000  plane waves:    4744
 k-point 90 :   0.4167-0.4167 0.0000  plane waves:    4772
 k-point 91 :   0.5000-0.4167 0.0000  plane waves:    4766
 k-point 92 :  -0.4167-0.4167 0.0000  plane waves:    4778
 k-point 93 :  -0.3333-0.4167 0.0000  plane waves:    4778
 k-point 94 :  -0.2500-0.4167 0.0000  plane waves:    4740
 k-point 95 :  -0.1667-0.4167 0.0000  plane waves:    4740
 k-point 96 :  -0.0833-0.4167 0.0000  plane waves:    4778
 k-point 97 :   0.0000-0.3333 0.0000  plane waves:    4762
 k-point 98 :   0.0833-0.3333 0.0000  plane waves:    4778
 k-point 99 :   0.1667-0.3333 0.0000  plane waves:    4762
 k-point ** :   0.2500-0.3333 0.0000  plane waves:    4744
 k-point ** :   0.3333-0.3333 0.0000  plane waves:    4734
 k-point ** :   0.4167-0.3333 0.0000  plane waves:    4744
 k-point ** :   0.5000-0.3333 0.0000  plane waves:    4762
 k-point ** :  -0.4167-0.3333 0.0000  plane waves:    4778
 k-point ** :  -0.3333-0.3333 0.0000  plane waves:    4762
 k-point ** :  -0.2500-0.3333 0.0000  plane waves:    4756
 k-point ** :  -0.1667-0.3333 0.0000  plane waves:    4726
 k-point ** :  -0.0833-0.3333 0.0000  plane waves:    4756
 k-point ** :   0.0000-0.2500 0.0000  plane waves:    4742
 k-point ** :   0.0833-0.2500 0.0000  plane waves:    4756
 k-point ** :   0.1667-0.2500 0.0000  plane waves:    4740
 k-point ** :   0.2500-0.2500 0.0000  plane waves:    4750
 k-point ** :   0.3333-0.2500 0.0000  plane waves:    4744
 k-point ** :   0.4167-0.2500 0.0000  plane waves:    4744
 k-point ** :   0.5000-0.2500 0.0000  plane waves:    4750
 k-point ** :  -0.4167-0.2500 0.0000  plane waves:    4740
 k-point ** :  -0.3333-0.2500 0.0000  plane waves:    4756
 k-point ** :  -0.2500-0.2500 0.0000  plane waves:    4742
 k-point ** :  -0.1667-0.2500 0.0000  plane waves:    4726
 k-point ** :  -0.0833-0.2500 0.0000  plane waves:    4726
 k-point ** :   0.0000-0.1667 0.0000  plane waves:    4710
 k-point ** :   0.0833-0.1667 0.0000  plane waves:    4726
 k-point ** :   0.1667-0.1667 0.0000  plane waves:    4726
 k-point ** :   0.2500-0.1667 0.0000  plane waves:    4740
 k-point ** :   0.3333-0.1667 0.0000  plane waves:    4762
 k-point ** :   0.4167-0.1667 0.0000  plane waves:    4772
 k-point ** :   0.5000-0.1667 0.0000  plane waves:    4762
 k-point ** :  -0.4167-0.1667 0.0000  plane waves:    4740
 k-point ** :  -0.3333-0.1667 0.0000  plane waves:    4726
 k-point ** :  -0.2500-0.1667 0.0000  plane waves:    4726
 k-point ** :  -0.1667-0.1667 0.0000  plane waves:    4710
 k-point ** :  -0.0833-0.1667 0.0000  plane waves:    4702
 k-point ** :   0.0000-0.0833 0.0000  plane waves:    4686
 k-point ** :   0.0833-0.0833 0.0000  plane waves:    4702
 k-point ** :   0.1667-0.0833 0.0000  plane waves:    4726
 k-point ** :   0.2500-0.0833 0.0000  plane waves:    4756
 k-point ** :   0.3333-0.0833 0.0000  plane waves:    4778
 k-point ** :   0.4167-0.0833 0.0000  plane waves:    4766
 k-point ** :   0.5000-0.0833 0.0000  plane waves:    4766
 k-point ** :  -0.4167-0.0833 0.0000  plane waves:    4778
 k-point ** :  -0.3333-0.0833 0.0000  plane waves:    4756
 k-point ** :  -0.2500-0.0833 0.0000  plane waves:    4726
 k-point ** :  -0.1667-0.0833 0.0000  plane waves:    4702
 k-point ** :  -0.0833-0.0833 0.0000  plane waves:    4686

 maximum number of plane-waves:      4788
 maximum index in each direction: 
   IXMAX=    5   IYMAX=    5   IZMAX=   24
   IXMIN=   -5   IYMIN=   -5   IZMIN=  -24


 total amount of memory used by VASP MPI-rank0   462420. kBytes
=======================================================================

   base      :      30000. kBytes
   nonl-proj :      99398. kBytes
   grid      :      41943. kBytes
   one-center:        186. kBytes
   wavefun   :     290893. kBytes
 
     INWAV:  cpu time    0.0000: real time    0.0000
 initial charge density was supplied:
 number of electron      18.0000011 magnetization       0.0000000      0.0000000     -0.0000000
 keeping initial charge density in first step


--------------------------------------------------------------------------------------------------------


 Maximum index for augmentation-charges         9753 (set IRDMAX)


--------------------------------------------------------------------------------------------------------


 First call to EWALD:  gamma=   0.349
 Maximum number of real-space cells 5x 5x 1
 Maximum number of reciprocal cells 2x 2x 7

    FEWALD:  cpu time    0.0012: real time    0.0012


--------------------------------------- Iteration      1(   1)  ---------------------------------------


    POTLOK:  cpu time    0.2725: real time    0.2728
    SETDIJ:  cpu time    0.0173: real time    0.0173
     EDDAV:  cpu time   17.1829: real time   17.1982
       DOS:  cpu time    0.0042: real time    0.0050
    --------------------------------------------
      LOOP:  cpu time   17.4769: real time   17.4933

 eigenvalue-minimisations  :  7512
 total energy-change (2. order) : 0.1088874E+03  (-0.5935725E+03)
 number of electron      18.0000011 magnetization       0.0000000      0.0000000     -0.0000000
 augmentation part       18.0000011 magnetization       0.0000000      0.0000000     -0.0000000

 Free energy of the ion-electron system (eV)
  ---------------------------------------------------
  alpha Z        PSCENC =        22.68957348
  Ewald energy   TEWEN  =      1143.31362263
  -Hartree energ DENC   =     -1885.54596755
  -exchange      EXHF   =         0.00000000
  -V(xc)+E(xc)   XCENC  =       -35.25819018
  PAW double counting   =      1564.16423160    -1488.31076291
  entropy T*S    EENTRO =        -0.00019536
  eigenvalues    EBANDS =        16.68314690
  atomic energy  EATOM  =       771.15194512
  Solvation  Ediel_sol  =         0.00000000
  ---------------------------------------------------
  free energy    TOTEN  =       108.88740374 eV

  energy without entropy =      108.88759910  energy(sigma->0) =      108.88750142


--------------------------------------------------------------------------------------------------------




--------------------------------------- Iteration      1(   2)  ---------------------------------------


     EDDAV:  cpu time   18.7038: real time   18.7500
       DOS:  cpu time    0.0015: real time    0.0015
    --------------------------------------------
      LOOP:  cpu time   18.7053: real time   18.7516

 eigenvalue-minimisations  : 10970
 total energy-change (2. order) :-0.1185991E+03  (-0.1136331E+03)
 number of electron      18.0000011 magnetization       0.0000000      0.0000000     -0.0000000
 augmentation part       18.0000011 magnetization       0.0000000      0.0000000     -0.0000000

 Free energy of the ion-electron system (eV)
  ---------------------------------------------------
  alpha Z        PSCENC =        22.68957348
  Ewald energy   TEWEN  =      1143.31362263
  -Hartree energ DENC   =     -1885.54596755
  -exchange      EXHF   =         0.00000000
  -V(xc)+E(xc)   XCENC  =       -35.25819018
  PAW double counting   =      1564.16423160    -1488.31076291
  entropy T*S    EENTRO =        -0.00000000
  eigenvalues    EBANDS =      -101.91615458
  atomic energy  EATOM  =       771.15194512
  Solvation  Ediel_sol  =         0.00000000
  ---------------------------------------------------
  free energy    TOTEN  =        -9.71170238 eV

  energy without entropy =       -9.71170238  energy(sigma->0) =       -9.71170238


--------------------------------------------------------------------------------------------------------




--------------------------------------- Iteration      1(   3)  ---------------------------------------


     EDDAV:  cpu time   16.5807: real time   16.5897
       DOS:  cpu time    0.0012: real time    0.0012
    --------------------------------------------
      LOOP:  cpu time   16.5819: real time   16.5909

 eigenvalue-minimisations  :  9512
 total energy-change (2. order) :-0.1176387E+02  (-0.1159871E+02)
 number of electron      18.0000011 magnetization       0.0000000      0.0000000     -0.0000000
 augmentation part       18.0000011 magnetization       0.0000000      0.0000000     -0.0000000

 Free energy of the ion-electron system (eV)
  ---------------------------------------------------
  alpha Z        PSCENC =        22.68957348
  Ewald energy   TEWEN  =      1143.31362263
  -Hartree energ DENC   =     -1885.54596755
  -exchange      EXHF   =         0.00000000
  -V(xc)+E(xc)   XCENC  =       -35.25819018
  PAW double counting   =      1564.16423160    -1488.31076291
  entropy T*S    EENTRO =        -0.00000000
  eigenvalues    EBANDS =      -113.68002478
  atomic energy  EATOM  =       771.15194512
  Solvation  Ediel_sol  =         0.00000000
  ---------------------------------------------------
  free energy    TOTEN  =       -21.47557259 eV

  energy without entropy =      -21.47557259  energy(sigma->0) =      -21.47557259


--------------------------------------------------------------------------------------------------------




--------------------------------------- Iteration      1(   4)  ---------------------------------------


     EDDAV:  cpu time   16.8553: real time   16.8703
       DOS:  cpu time    0.0012: real time    0.0012
    --------------------------------------------
      LOOP:  cpu time   16.8565: real time   16.8715

 eigenvalue-minimisations  :  9686
 total energy-change (2. order) :-0.3105408E+00  (-0.3077908E+00)
 number of electron      18.0000011 magnetization       0.0000000      0.0000000     -0.0000000
 augmentation part       18.0000011 magnetization       0.0000000      0.0000000     -0.0000000

 Free energy of the ion-electron system (eV)
  ---------------------------------------------------
  alpha Z        PSCENC =        22.68957348
  Ewald energy   TEWEN  =      1143.31362263
  -Hartree energ DENC   =     -1885.54596755
  -exchange      EXHF   =         0.00000000
  -V(xc)+E(xc)   XCENC  =       -35.25819018
  PAW double counting   =      1564.16423160    -1488.31076291
  entropy T*S    EENTRO =        -0.00000000
  eigenvalues    EBANDS =      -113.99056560
  atomic energy  EATOM  =       771.15194512
  Solvation  Ediel_sol  =         0.00000000
  ---------------------------------------------------
  free energy    TOTEN  =       -21.78611340 eV

  energy without entropy =      -21.78611340  energy(sigma->0) =      -21.78611340


--------------------------------------------------------------------------------------------------------




--------------------------------------- Iteration      1(   5)  ---------------------------------------


     EDDAV:  cpu time   16.3386: real time   16.3480
       DOS:  cpu time    0.0013: real time    0.0012
    --------------------------------------------
      LOOP:  cpu time   16.3398: real time   16.3492

 eigenvalue-minimisations  :  9288
 total energy-change (2. order) :-0.8766627E-02  (-0.8742065E-02)
 number of electron      18.0000011 magnetization       0.0000000      0.0000000     -0.0000000
 augmentation part       18.0000011 magnetization       0.0000000      0.0000000     -0.0000000

 Free energy of the ion-electron system (eV)
  ---------------------------------------------------
  alpha Z        PSCENC =        22.68957348
  Ewald energy   TEWEN  =      1143.31362263
  -Hartree energ DENC   =     -1885.54596755
  -exchange      EXHF   =         0.00000000
  -V(xc)+E(xc)   XCENC  =       -35.25819018
  PAW double counting   =      1564.16423160    -1488.31076291
  entropy T*S    EENTRO =        -0.00000000
  eigenvalues    EBANDS =      -113.99933222
  atomic energy  EATOM  =       771.15194512
  Solvation  Ediel_sol  =         0.00000000
  ---------------------------------------------------
  free energy    TOTEN  =       -21.79488003 eV

  energy without entropy =      -21.79488003  energy(sigma->0) =      -21.79488003


--------------------------------------------------------------------------------------------------------




--------------------------------------- Iteration      1(   6)  ---------------------------------------


     EDDAV:  cpu time   16.9214: real time   16.9328
       DOS:  cpu time    0.0013: real time    0.0013
    --------------------------------------------
      LOOP:  cpu time   16.9227: real time   16.9341

 eigenvalue-minimisations  :  9496
 total energy-change (2. order) :-0.3343871E-03  (-0.3342486E-03)
 number of electron      18.0000011 magnetization       0.0000000      0.0000000     -0.0000000
 augmentation part       18.0000011 magnetization       0.0000000      0.0000000     -0.0000000

 Free energy of the ion-electron system (eV)
  ---------------------------------------------------
  alpha Z        PSCENC =        22.68957348
  Ewald energy   TEWEN  =      1143.31362263
  -Hartree energ DENC   =     -1885.54596755
  -exchange      EXHF   =         0.00000000
  -V(xc)+E(xc)   XCENC  =       -35.25819018
  PAW double counting   =      1564.16423160    -1488.31076291
  entropy T*S    EENTRO =        -0.00000000
  eigenvalues    EBANDS =      -113.99966661
  atomic energy  EATOM  =       771.15194512
  Solvation  Ediel_sol  =         0.00000000
  ---------------------------------------------------
  free energy    TOTEN  =       -21.79521442 eV

  energy without entropy =      -21.79521442  energy(sigma->0) =      -21.79521442


--------------------------------------------------------------------------------------------------------




--------------------------------------- Iteration      1(   7)  ---------------------------------------


     EDDAV:  cpu time   16.7477: real time   16.7584
       DOS:  cpu time    0.0013: real time    0.0013
    --------------------------------------------
      LOOP:  cpu time   16.7490: real time   16.7597

 eigenvalue-minimisations  :  9408
 total energy-change (2. order) :-0.1387665E-04  (-0.1387647E-04)
 number of electron      18.0000011 magnetization       0.0000000      0.0000000     -0.0000000
 augmentation part       18.0000011 magnetization       0.0000000      0.0000000     -0.0000000

 Free energy of the ion-electron system (eV)
  ---------------------------------------------------
  alpha Z        PSCENC =        22.68957348
  Ewald energy   TEWEN  =      1143.31362263
  -Hartree energ DENC   =     -1885.54596755
  -exchange      EXHF   =         0.00000000
  -V(xc)+E(xc)   XCENC  =       -35.25819018
  PAW double counting   =      1564.16423160    -1488.31076291
  entropy T*S    EENTRO =        -0.00000000
  eigenvalues    EBANDS =      -113.99968049
  atomic energy  EATOM  =       771.15194512
  Solvation  Ediel_sol  =         0.00000000
  ---------------------------------------------------
  free energy    TOTEN  =       -21.79522829 eV

  energy without entropy =      -21.79522829  energy(sigma->0) =      -21.79522829


--------------------------------------------------------------------------------------------------------




--------------------------------------- Iteration      1(   8)  ---------------------------------------


     EDDAV:  cpu time   15.6981: real time   15.7116
       DOS:  cpu time    0.0013: real time    0.0013
    --------------------------------------------
      LOOP:  cpu time   15.6994: real time   15.7129

 eigenvalue-minimisations  :  8690
 total energy-change (2. order) :-0.7276847E-06  (-0.7276799E-06)
 number of electron      18.0000011 magnetization       0.0000000      0.0000000     -0.0000000
 augmentation part       18.0000011 magnetization       0.0000000      0.0000000     -0.0000000

 Free energy of the ion-electron system (eV)
  ---------------------------------------------------
  alpha Z        PSCENC =        22.68957348
  Ewald energy   TEWEN  =      1143.31362263
  -Hartree energ DENC   =     -1885.54596755
  -exchange      EXHF   =         0.00000000
  -V(xc)+E(xc)   XCENC  =       -35.25819018
  PAW double counting   =      1564.16423160    -1488.31076291
  entropy T*S    EENTRO =        -0.00000000
  eigenvalues    EBANDS =      -113.99968121
  atomic energy  EATOM  =       771.15194512
  Solvation  Ediel_sol  =         0.00000000
  ---------------------------------------------------
  free energy    TOTEN  =       -21.79522902 eV

  energy without entropy =      -21.79522902  energy(sigma->0) =      -21.79522902


--------------------------------------------------------------------------------------------------------




 average (electrostatic) potential at core
  the test charge radii are     1.2296  0.9698
  (the norm of the test charge is              1.0000)
       1 -44.8153       2 -92.6533       3 -92.6533
 
 
 
 E-fermi :  -1.1722     XC(G=0):  -5.0950     alpha+bet : -4.8360


 k-point     1 :       0.0000    0.0000    0.0000
  band No.  band energies     occupation 
      1     -15.3735      1.00000
      2     -15.3735      1.00000
      3     -14.2573      1.00000
      4     -14.2573      1.00000
      5      -6.9032      1.00000
      6      -6.9032      1.00000
      7      -3.8232      1.00000
      8      -3.8232      1.00000
      9      -3.7533      1.00000
     10      -3.7533      1.00000
     11      -3.2336      1.00000
     12      -3.2336      1.00000
     13      -2.7469      1.00000
     14      -2.7469      1.00000
     15      -2.6603      1.00000
     16      -2.6603      1.00000
     17      -1.5368      1.00000
     18      -1.5368      1.00000
     19       1.3763      0.00000
     20       1.3764      0.00000
     21       1.4510      0.00000
     22       1.4510      0.00000
     23       1.5709      0.00000
     24       1.5710      0.00000
     25       1.5784      0.00000
     26       1.5785      0.00000

 k-point     2 :       0.0833   -0.0000    0.0000
  band No.  band energies     occupation 
      1     -15.2750      1.00000
      2     -15.2750      1.00000
      3     -14.2068      1.00000
      4     -14.2068      1.00000
      5      -6.7845      1.00000
      6      -6.7845      1.00000
      7      -4.0240      1.00000
      8      -4.0240      1.00000
      9      -3.6842      1.00000
     10      -3.6842      1.00000
     11      -3.6060      1.00000
     12      -3.6060      1.00000
     13      -2.8699      1.00000
     14      -2.8699      1.00000
     15      -2.4915      1.00000
     16      -2.4915      1.00000
     17      -1.5755      1.00000
     18      -1.5755      1.00000
     19       1.2489      0.00000
     20       1.2489      0.00000
     21       1.2960      0.00000
     22       1.2960      0.00000
     23       1.4551      0.00000
     24       1.4551      0.00000
     25       1.5967      0.00000
     26       1.5967      0.00000

 k-point     3 :       0.1667   -0.0000    0.0000
  band No.  band energies     occupation 
      1     -14.9932      1.00000
      2     -14.9932      1.00000
      3     -14.0631      1.00000
      4     -14.0631      1.00000
      5      -6.4818      1.00000
      6      -6.4818      1.00000
      7      -4.5684      1.00000
      8      -4.5684      1.00000
      9      -4.2230      1.00000
     10      -4.2230      1.00000
     11      -3.3840      1.00000
     12      -3.3840      1.00000
     13      -3.2531      1.00000
     14      -3.2531      1.00000
     15      -2.4710      1.00000
     16      -2.4710      1.00000
     17      -1.7683      1.00000
     18      -1.7683      1.00000
     19       0.8154      0.00000
     20       0.8154      0.00000
     21       1.1776      0.00000
     22       1.1776      0.00000
     23       1.2194      0.00000
     24       1.2194      0.00000
     25       1.9635      0.00000
     26       1.9635      0.00000

 k-point     4 :       0.2500   -0.0000    0.0000
  band No.  band energies     occupation 
      1     -14.5718      1.00000
      2     -14.5718      1.00000
      3     -13.8506      1.00000
      4     -13.8506      1.00000
      5      -6.2405      1.00000
      6      -6.2405      1.00000
      7      -5.0791      1.00000
      8      -5.0791      1.00000
      9      -4.8784      1.00000
     10      -4.8784      1.00000
     11      -3.6928      1.00000
     12      -3.6928      1.00000
     13      -2.9715      1.00000
     14      -2.9715      1.00000
     15      -2.7546      1.00000
     16      -2.7546      1.00000
     17      -2.1463      1.00000
     18      -2.1463      1.00000
     19       0.6721      0.00000
     20       0.6721      0.00000
     21       0.9479      0.00000
     22       0.9479      0.00000
     23       1.4997      0.00000
     24       1.4997      0.00000
     25       2.3400      0.00000
     26       2.3401      0.00000

 k-point     5 :       0.3333   -0.0000    0.0000
  band No.  band energies     occupation 
      1     -14.0932      1.00000
      2     -14.0932      1.00000
      3     -13.6150      1.00000
      4     -13.6150      1.00000
      5      -6.4815      1.00000
      6      -6.4815      1.00000
      7      -5.5134      1.00000
      8      -5.5134      1.00000
      9      -5.2190      1.00000
     10      -5.2190      1.00000
     11      -4.0596      1.00000
     12      -4.0596      1.00000
     13      -3.0791      1.00000
     14      -3.0791      1.00000
     15      -2.5664      1.00000
     16      -2.5664      1.00000
     17      -2.3515      1.00000
     18      -2.3515      1.00000
     19       0.7974      0.00000
     20       0.7974      0.00000
     21       0.8857      0.00000
     22       0.8857      0.00000
     23       1.9758      0.00000
     24       1.9758      0.00000
     25       2.6070      0.00000
     26       2.6070      0.00000

 k-point     6 :       0.4167   -0.0000    0.0000
  band No.  band energies     occupation 
      1     -13.6900      1.00000
      2     -13.6900      1.00000
      3     -13.4236      1.00000
      4     -13.4236      1.00000
      5      -6.8951      1.00000
      6      -6.8951      1.00000
      7      -5.9884      1.00000
      8      -5.9884      1.00000
      9      -5.3121      1.00000
     10      -5.3121      1.00000
     11      -4.2978      1.00000
     12      -4.2978      1.00000
     13      -3.2739      1.00000
     14      -3.2739      1.00000
     15      -2.3011      1.00000
     16      -2.3011      1.00000
     17      -2.1695      1.00000
     18      -2.1695      1.00000
     19       0.8382      0.00000
     20       0.8382      0.00000
     21       1.1777      0.00000
     22       1.1777      0.00000
     23       2.3458      0.00000
     24       2.3458      0.00000
     25       2.7498      0.00000
     26       2.7498      0.00000

 k-point     7 :       0.5000   -0.0000    0.0000
  band No.  band energies     occupation 
      1     -13.5269      1.00000
      2     -13.5269      1.00000
      3     -13.3487      1.00000
      4     -13.3487      1.00000
      5      -7.0748      1.00000
      6      -7.0748      1.00000
      7      -6.1665      1.00000
      8      -6.1665      1.00000
      9      -5.3795      1.00000
     10      -5.3795      1.00000
     11      -4.3799      1.00000
     12      -4.3799      1.00000
     13      -3.3359      1.00000
     14      -3.3359      1.00000
     15      -2.2061      1.00000
     16      -2.2061      1.00000
     17      -2.0145      1.00000
     18      -2.0145      1.00000
     19       0.8792      0.00000
     20       0.8792      0.00000
     21       1.3540      0.00000
     22       1.3540      0.00000
     23       2.4728      0.00000
     24       2.4728      0.00000
     25       2.7930      0.00000
     26       2.7930      0.00000

 k-point     8 :      -0.4167    0.0000    0.0000
  band No.  band energies     occupation 
      1     -13.6900      1.00000
      2     -13.6900      1.00000
      3     -13.4236      1.00000
      4     -13.4236      1.00000
      5      -6.8951      1.00000
      6      -6.8951      1.00000
      7      -5.9884      1.00000
      8      -5.9884      1.00000
      9      -5.3121      1.00000
     10      -5.3121      1.00000
     11      -4.2978      1.00000
     12      -4.2978      1.00000
     13      -3.2739      1.00000
     14      -3.2739      1.00000
     15      -2.3011      1.00000
     16      -2.3011      1.00000
     17      -2.1695      1.00000
     18      -2.1695      1.00000
     19       0.8382      0.00000
     20       0.8382      0.00000
     21       1.1777      0.00000
     22       1.1777      0.00000
     23       2.3458      0.00000
     24       2.3458      0.00000
     25       2.7498      0.00000
     26       2.7498      0.00000

 k-point     9 :      -0.3333    0.0000    0.0000
  band No.  band energies     occupation 
      1     -14.0932      1.00000
      2     -14.0932      1.00000
      3     -13.6150      1.00000
      4     -13.6150      1.00000
      5      -6.4815      1.00000
      6      -6.4815      1.00000
      7      -5.5134      1.00000
      8      -5.5134      1.00000
      9      -5.2190      1.00000
     10      -5.2190      1.00000
     11      -4.0596      1.00000
     12      -4.0596      1.00000
     13      -3.0791      1.00000
     14      -3.0791      1.00000
     15      -2.5664      1.00000
     16      -2.5664      1.00000
     17      -2.3515      1.00000
     18      -2.3515      1.00000
     19       0.7974      0.00000
     20       0.7974      0.00000
     21       0.8857      0.00000
     22       0.8857      0.00000
     23       1.9758      0.00000
     24       1.9758      0.00000
     25       2.6070      0.00000
     26       2.6070      0.00000

 k-point    10 :      -0.2500    0.0000    0.0000
  band No.  band energies     occupation 
      1     -14.5718      1.00000
      2     -14.5718      1.00000
      3     -13.8506      1.00000
      4     -13.8506      1.00000
      5      -6.2405      1.00000
      6      -6.2405      1.00000
      7      -5.0791      1.00000
      8      -5.0791      1.00000
      9      -4.8784      1.00000
     10      -4.8784      1.00000
     11      -3.6928      1.00000
     12      -3.6928      1.00000
     13      -2.9715      1.00000
     14      -2.9715      1.00000
     15      -2.7546      1.00000
     16      -2.7546      1.00000
     17      -2.1463      1.00000
     18      -2.1463      1.00000
     19       0.6721      0.00000
     20       0.6721      0.00000
     21       0.9479      0.00000
     22       0.9479      0.00000
     23       1.4997      0.00000
     24       1.4997      0.00000
     25       2.3400      0.00000
     26       2.3400      0.00000

 k-point    11 :      -0.1667    0.0000    0.0000
  band No.  band energies     occupation 
      1     -14.9932      1.00000
      2     -14.9932      1.00000
      3     -14.0631      1.00000
      4     -14.0631      1.00000
      5      -6.4818      1.00000
      6      -6.4818      1.00000
      7      -4.5684      1.00000
      8      -4.5684      1.00000
      9      -4.2230      1.00000
     10      -4.2230      1.00000
     11      -3.3840      1.00000
     12      -3.3840      1.00000
     13      -3.2531      1.00000
     14      -3.2531      1.00000
     15      -2.4710      1.00000
     16      -2.4710      1.00000
     17      -1.7683      1.00000
     18      -1.7683      1.00000
     19       0.8154      0.00000
     20       0.8154      0.00000
     21       1.1776      0.00000
     22       1.1776      0.00000
     23       1.2194      0.00000
     24       1.2194      0.00000
     25       1.9635      0.00000
     26       1.9635      0.00000

 k-point    12 :      -0.0833    0.0000    0.0000
  band No.  band energies     occupation 
      1     -15.2750      1.00000
      2     -15.2750      1.00000
      3     -14.2068      1.00000
      4     -14.2068      1.00000
      5      -6.7845      1.00000
      6      -6.7845      1.00000
      7      -4.0240      1.00000
      8      -4.0240      1.00000
      9      -3.6842      1.00000
     10      -3.6842      1.00000
     11      -3.6060      1.00000
     12      -3.6060      1.00000
     13      -2.8699      1.00000
     14      -2.8699      1.00000
     15      -2.4915      1.00000
     16      -2.4915      1.00000
     17      -1.5755      1.00000
     18      -1.5755      1.00000
     19       1.2489      0.00000
     20       1.2489      0.00000
     21       1.2960      0.00000
     22       1.2960      0.00000
     23       1.4551      0.00000
     24       1.4551      0.00000
     25       1.5967      0.00000
     26       1.5967      0.00000

 k-point    13 :       0.0000    0.0833    0.0000
  band No.  band energies     occupation 
      1     -15.2750      1.00000
      2     -15.2750      1.00000
      3     -14.2068      1.00000
      4     -14.2068      1.00000
      5      -6.7845      1.00000
      6      -6.7845      1.00000
      7      -4.0240      1.00000
      8      -4.0240      1.00000
      9      -3.6842      1.00000
     10      -3.6842      1.00000
     11      -3.6060      1.00000
     12      -3.6060      1.00000
     13      -2.8699      1.00000
     14      -2.8699      1.00000
     15      -2.4915      1.00000
     16      -2.4915      1.00000
     17      -1.5755      1.00000
     18      -1.5755      1.00000
     19       1.2489      0.00000
     20       1.2489      0.00000
     21       1.2960      0.00000
     22       1.2960      0.00000
     23       1.4551      0.00000
     24       1.4551      0.00000
     25       1.5967      0.00000
     26       1.5967      0.00000

 k-point    14 :       0.0833    0.0833    0.0000
  band No.  band energies     occupation 
      1     -15.2750      1.00000
      2     -15.2750      1.00000
      3     -14.2068      1.00000
      4     -14.2068      1.00000
      5      -6.7845      1.00000
      6      -6.7845      1.00000
      7      -4.0240      1.00000
      8      -4.0240      1.00000
      9      -3.6842      1.00000
     10      -3.6842      1.00000
     11      -3.6060      1.00000
     12      -3.6060      1.00000
     13      -2.8699      1.00000
     14      -2.8699      1.00000
     15      -2.4915      1.00000
     16      -2.4915      1.00000
     17      -1.5755      1.00000
     18      -1.5755      1.00000
     19       1.2489      0.00000
     20       1.2489      0.00000
     21       1.2960      0.00000
     22       1.2960      0.00000
     23       1.4551      0.00000
     24       1.4552      0.00000
     25       1.5966      0.00000
     26       1.5967      0.00000

 k-point    15 :       0.1667    0.0833    0.0000
  band No.  band energies     occupation 
      1     -15.0851      1.00000
      2     -15.0842      1.00000
      3     -14.1097      1.00000
      4     -14.1095      1.00000
      5      -6.5712      1.00000
      6      -6.5698      1.00000
      7      -4.4082      1.00000
      8      -4.3984      1.00000
      9      -4.0164      1.00000
     10      -4.0163      1.00000
     11      -3.4965      1.00000
     12      -3.4743      1.00000
     13      -3.2627      1.00000
     14      -3.2530      1.00000
     15      -2.3560      1.00000
     16      -2.3275      1.00000
     17      -1.6936      1.00000
     18      -1.6886      1.00000
     19       0.9153      0.00000
     20       0.9271      0.00000
     21       1.0917      0.00000
     22       1.1419      0.00000
     23       1.2502      0.00000
     24       1.2790      0.00000
     25       1.8705      0.00000
     26       1.9190      0.00000

 k-point    16 :       0.2500    0.0833    0.0000
  band No.  band energies     occupation 
      1     -14.7335      1.00000
      2     -14.7308      1.00000
      3     -13.9306      1.00000
      4     -13.9302      1.00000
      5      -6.2709      1.00000
      6      -6.2654      1.00000
      7      -4.9162      1.00000
      8      -4.9113      1.00000
      9      -4.5463      1.00000
     10      -4.5381      1.00000
     11      -3.8266      1.00000
     12      -3.8254      1.00000
     13      -3.2041      1.00000
     14      -3.1675      1.00000
     15      -2.4215      1.00000
     16      -2.3899      1.00000
     17      -1.9974      1.00000
     18      -1.9697      1.00000
     19       0.6024      0.00000
     20       0.6249      0.00000
     21       1.0356      0.00000
     22       1.0419      0.00000
     23       1.1532      0.00000
     24       1.2200      0.00000
     25       2.2883      0.00000
     26       2.3343      0.00000

 k-point    17 :       0.3333    0.0833    0.0000
  band No.  band energies     occupation 
      1     -14.2812      1.00000
      2     -14.2758      1.00000
      3     -13.7035      1.00000
      4     -13.7028      1.00000
      5      -6.2712      1.00000
      6      -6.2628      1.00000
      7      -5.2060      1.00000
      8      -5.1974      1.00000
      9      -5.1552      1.00000
     10      -5.1503      1.00000
     11      -4.2096      1.00000
     12      -4.2029      1.00000
     13      -3.0192      1.00000
     14      -2.9554      1.00000
     15      -2.7346      1.00000
     16      -2.7090      1.00000
     17      -2.2431      1.00000
     18      -2.1726      1.00000
     19       0.5396      0.00000
     20       0.5965      0.00000
     21       0.9919      0.00000
     22       1.0127      0.00000
     23       1.5335      0.00000
     24       1.5823      0.00000
     25       2.6142      0.00000
     26       2.6497      0.00000

 k-point    18 :       0.4167    0.0833    0.0000
  band No.  band energies     occupation 
      1     -13.8334      1.00000
      2     -13.8247      1.00000
      3     -13.4842      1.00000
      4     -13.4831      1.00000
      5      -6.6379      1.00000
      6      -6.6377      1.00000
      7      -5.8126      1.00000
      8      -5.8063      1.00000
      9      -5.2078      1.00000
     10      -5.2059      1.00000
     11      -4.3788      1.00000
     12      -4.3717      1.00000
     13      -3.0801      1.00000
     14      -3.0753      1.00000
     15      -2.9273      1.00000
     16      -2.8748      1.00000
     17      -2.1027      1.00000
     18      -2.0149      1.00000
     19       0.7228      0.00000
     20       0.7602      0.00000
     21       1.1252      0.00000
     22       1.1362      0.00000
     23       2.0029      0.00000
     24       2.0347      0.00000
     25       2.7555      0.00000
     26       2.7756      0.00000

 k-point    19 :       0.5000    0.0833    0.0000
  band No.  band energies     occupation 
      1     -13.5411      1.00000
      2     -13.5299      1.00000
      3     -13.3454      1.00000
      4     -13.3441      1.00000
      5      -6.9367      1.00000
      6      -6.9287      1.00000
      7      -6.1745      1.00000
      8      -6.1701      1.00000
      9      -5.3231      1.00000
     10      -5.3200      1.00000
     11      -4.4304      1.00000
     12      -4.4232      1.00000
     13      -3.2922      1.00000
     14      -3.2850      1.00000
     15      -2.8177      1.00000
     16      -2.7589      1.00000
     17      -1.8733      1.00000
     18      -1.7787      1.00000
     19       0.8595      0.00000
     20       0.8950      0.00000
     21       1.3101      0.00000
     22       1.4031      0.00000
     23       2.3838      0.00000
     24       2.3991      0.00000
     25       2.6922      0.00000
     26       2.6955      0.00000

 k-point    20 :      -0.4167    0.0833    0.0000
  band No.  band energies     occupation 
      1     -13.5411      1.00000
      2     -13.5299      1.00000
      3     -13.3454      1.00000
      4     -13.3441      1.00000
      5      -6.9367      1.00000
      6      -6.9287      1.00000
      7      -6.1745      1.00000
      8      -6.1701      1.00000
      9      -5.3231      1.00000
     10      -5.3200      1.00000
     11      -4.4304      1.00000
     12      -4.4232      1.00000
     13      -3.2922      1.00000
     14      -3.2850      1.00000
     15      -2.8177      1.00000
     16      -2.7589      1.00000
     17      -1.8733      1.00000
     18      -1.7787      1.00000
     19       0.8595      0.00000
     20       0.8950      0.00000
     21       1.3101      0.00000
     22       1.4031      0.00000
     23       2.3838      0.00000
     24       2.3991      0.00000
     25       2.6922      0.00000
     26       2.6955      0.00000

 k-point    21 :      -0.3333    0.0833    0.0000
  band No.  band energies     occupation 
      1     -13.8334      1.00000
      2     -13.8247      1.00000
      3     -13.4842      1.00000
      4     -13.4831      1.00000
      5      -6.6379      1.00000
      6      -6.6377      1.00000
      7      -5.8126      1.00000
      8      -5.8063      1.00000
      9      -5.2078      1.00000
     10      -5.2059      1.00000
     11      -4.3788      1.00000
     12      -4.3717      1.00000
     13      -3.0801      1.00000
     14      -3.0753      1.00000
     15      -2.9273      1.00000
     16      -2.8748      1.00000
     17      -2.1027      1.00000
     18      -2.0149      1.00000
     19       0.7228      0.00000
     20       0.7602      0.00000
     21       1.1252      0.00000
     22       1.1362      0.00000
     23       2.0029      0.00000
     24       2.0347      0.00000
     25       2.7555      0.00000
     26       2.7756      0.00000

 k-point    22 :      -0.2500    0.0833    0.0000
  band No.  band energies     occupation 
      1     -14.2812      1.00000
      2     -14.2758      1.00000
      3     -13.7035      1.00000
      4     -13.7028      1.00000
      5      -6.2712      1.00000
      6      -6.2628      1.00000
      7      -5.2060      1.00000
      8      -5.1974      1.00000
      9      -5.1552      1.00000
     10      -5.1503      1.00000
     11      -4.2096      1.00000
     12      -4.2029      1.00000
     13      -3.0192      1.00000
     14      -2.9554      1.00000
     15      -2.7346      1.00000
     16      -2.7090      1.00000
     17      -2.2431      1.00000
     18      -2.1726      1.00000
     19       0.5396      0.00000
     20       0.5965      0.00000
     21       0.9919      0.00000
     22       1.0127      0.00000
     23       1.5335      0.00000
     24       1.5823      0.00000
     25       2.6142      0.00000
     26       2.6497      0.00000

 k-point    23 :      -0.1667    0.0833    0.0000
  band No.  band energies     occupation 
      1     -14.7335      1.00000
      2     -14.7308      1.00000
      3     -13.9306      1.00000
      4     -13.9302      1.00000
      5      -6.2709      1.00000
      6      -6.2654      1.00000
      7      -4.9162      1.00000
      8      -4.9113      1.00000
      9      -4.5463      1.00000
     10      -4.5381      1.00000
     11      -3.8266      1.00000
     12      -3.8254      1.00000
     13      -3.2041      1.00000
     14      -3.1675      1.00000
     15      -2.4215      1.00000
     16      -2.3899      1.00000
     17      -1.9974      1.00000
     18      -1.9697      1.00000
     19       0.6024      0.00000
     20       0.6249      0.00000
     21       1.0356      0.00000
     22       1.0419      0.00000
     23       1.1532      0.00000
     24       1.2200      0.00000
     25       2.2883      0.00000
     26       2.3343      0.00000

 k-point    24 :      -0.0833    0.0833    0.0000
  band No.  band energies     occupation 
      1     -15.0851      1.00000
      2     -15.0842      1.00000
      3     -14.1097      1.00000
      4     -14.1095      1.00000
      5      -6.5712      1.00000
      6      -6.5698      1.00000
      7      -4.4082      1.00000
      8      -4.3984      1.00000
      9      -4.0164      1.00000
     10      -4.0163      1.00000
     11      -3.4965      1.00000
     12      -3.4743      1.00000
     13      -3.2627      1.00000
     14      -3.2530      1.00000
     15      -2.3560      1.00000
     16      -2.3275      1.00000
     17      -1.6936      1.00000
     18      -1.6886      1.00000
     19       0.9153      0.00000
     20       0.9271      0.00000
     21       1.0917      0.00000
     22       1.1419      0.00000
     23       1.2502      0.00000
     24       1.2790      0.00000
     25       1.8705      0.00000
     26       1.9190      0.00000

 k-point    25 :       0.0000    0.1667    0.0000
  band No.  band energies     occupation 
      1     -14.9932      1.00000
      2     -14.9932      1.00000
      3     -14.0631      1.00000
      4     -14.0631      1.00000
      5      -6.4818      1.00000
      6      -6.4818      1.00000
      7      -4.5684      1.00000
      8      -4.5684      1.00000
      9      -4.2230      1.00000
     10      -4.2230      1.00000
     11      -3.3840      1.00000
     12      -3.3840      1.00000
     13      -3.2531      1.00000
     14      -3.2531      1.00000
     15      -2.4710      1.00000
     16      -2.4710      1.00000
     17      -1.7683      1.00000
     18      -1.7683      1.00000
     19       0.8154      0.00000
     20       0.8154      0.00000
     21       1.1776      0.00000
     22       1.1776      0.00000
     23       1.2194      0.00000
     24       1.2194      0.00000
     25       1.9635      0.00000
     26       1.9635      0.00000

 k-point    26 :       0.0833    0.1667    0.0000
  band No.  band energies     occupation 
      1     -15.0851      1.00000
      2     -15.0842      1.00000
      3     -14.1097      1.00000
      4     -14.1095      1.00000
      5      -6.5712      1.00000
      6      -6.5698      1.00000
      7      -4.4082      1.00000
      8      -4.3984      1.00000
      9      -4.0164      1.00000
     10      -4.0163      1.00000
     11      -3.4965      1.00000
     12      -3.4743      1.00000
     13      -3.2627      1.00000
     14      -3.2530      1.00000
     15      -2.3560      1.00000
     16      -2.3275      1.00000
     17      -1.6936      1.00000
     18      -1.6886      1.00000
     19       0.9153      0.00000
     20       0.9271      0.00000
     21       1.0917      0.00000
     22       1.1419      0.00000
     23       1.2502      0.00000
     24       1.2790      0.00000
     25       1.8705      0.00000
     26       1.9190      0.00000

 k-point    27 :       0.1667    0.1667    0.0000
  band No.  band energies     occupation 
      1     -14.9932      1.00000
      2     -14.9932      1.00000
      3     -14.0631      1.00000
      4     -14.0631      1.00000
      5      -6.4818      1.00000
      6      -6.4818      1.00000
      7      -4.5684      1.00000
      8      -4.5684      1.00000
      9      -4.2230      1.00000
     10      -4.2230      1.00000
     11      -3.3840      1.00000
     12      -3.3840      1.00000
     13      -3.2531      1.00000
     14      -3.2531      1.00000
     15      -2.4710      1.00000
     16      -2.4710      1.00000
     17      -1.7683      1.00000
     18      -1.7683      1.00000
     19       0.8154      0.00000
     20       0.8154      0.00000
     21       1.1776      0.00000
     22       1.1776      0.00000
     23       1.2194      0.00000
     24       1.2194      0.00000
     25       1.9635      0.00000
     26       1.9635      0.00000

 k-point    28 :       0.2500    0.1667    0.0000
  band No.  band energies     occupation 
      1     -14.7335      1.00000
      2     -14.7308      1.00000
      3     -13.9306      1.00000
      4     -13.9302      1.00000
      5      -6.2709      1.00000
      6      -6.2654      1.00000
      7      -4.9162      1.00000
      8      -4.9113      1.00000
      9      -4.5463      1.00000
     10      -4.5381      1.00000
     11      -3.8266      1.00000
     12      -3.8254      1.00000
     13      -3.2041      1.00000
     14      -3.1675      1.00000
     15      -2.4215      1.00000
     16      -2.3899      1.00000
     17      -1.9974      1.00000
     18      -1.9697      1.00000
     19       0.6024      0.00000
     20       0.6249      0.00000
     21       1.0356      0.00000
     22       1.0419      0.00000
     23       1.1532      0.00000
     24       1.2200      0.00000
     25       2.2883      0.00000
     26       2.3343      0.00000

 k-point    29 :       0.3333    0.1667    0.0000
  band No.  band energies     occupation 
      1     -14.3482      1.00000
      2     -14.3410      1.00000
      3     -13.7344      1.00000
      4     -13.7334      1.00000
      5      -6.1730      1.00000
      6      -6.1586      1.00000
      7      -5.1086      1.00000
      8      -5.1033      1.00000
      9      -4.9493      1.00000
     10      -4.9205      1.00000
     11      -4.5021      1.00000
     12      -4.4755      1.00000
     13      -3.2478      1.00000
     14      -3.1791      1.00000
     15      -2.4766      1.00000
     16      -2.4417      1.00000
     17      -2.1854      1.00000
     18      -2.1084      1.00000
     19       0.4174      0.00000
     20       0.4825      0.00000
     21       1.0502      0.00000
     22       1.0634      0.00000
     23       1.2465      0.00000
     24       1.3039      0.00000
     25       2.6721      0.00000
     26       2.7095      0.00000

 k-point    30 :       0.4167    0.1667    0.0000
  band No.  band energies     occupation 
      1     -13.9172      1.00000
      2     -13.9039      1.00000
      3     -13.5160      1.00000
      4     -13.5143      1.00000
      5      -6.3708      1.00000
      6      -6.3631      1.00000
      7      -5.6419      1.00000
      8      -5.6268      1.00000
      9      -5.0437      1.00000
     10      -5.0341      1.00000
     11      -4.6283      1.00000
     12      -4.6095      1.00000
     13      -3.5592      1.00000
     14      -3.5002      1.00000
     15      -2.7867      1.00000
     16      -2.7652      1.00000
     17      -2.1033      1.00000
     18      -2.0061      1.00000
     19       0.5667      0.00000
     20       0.6336      0.00000
     21       1.1812      0.00000
     22       1.1886      0.00000
     23       1.5506      0.00000
     24       1.5798      0.00000
     25       2.9065      0.00000
     26       2.9142      0.00000

 k-point    31 :       0.5000    0.1667    0.0000
  band No.  band energies     occupation 
      1     -13.5620      1.00000
      2     -13.5428      1.00000
      3     -13.3380      1.00000
      4     -13.3357      1.00000
      5      -6.6028      1.00000
      6      -6.5939      1.00000
      7      -6.1837      1.00000
      8      -6.1748      1.00000
      9      -5.1437      1.00000
     10      -5.1424      1.00000
     11      -4.5491      1.00000
     12      -4.5322      1.00000
     13      -3.6921      1.00000
     14      -3.6429      1.00000
     15      -3.1605      1.00000
     16      -3.1498      1.00000
     17      -1.8581      1.00000
     18      -1.7513      1.00000
     19       0.7960      0.00000
     20       0.8118      0.00000
     21       1.3522      0.00000
     22       1.4594      0.00000
     23       1.8555      0.00000
     24       1.8621      0.00000
     25       2.9602      0.00000
     26       2.9915      0.00000

 k-point    32 :      -0.4167    0.1667    0.0000
  band No.  band energies     occupation 
      1     -13.4210      1.00000
      2     -13.3993      1.00000
      3     -13.2681      1.00000
      4     -13.2656      1.00000
      5      -6.6980      1.00000
      6      -6.6798      1.00000
      7      -6.3818      1.00000
      8      -6.3749      1.00000
      9      -5.2586      1.00000
     10      -5.2537      1.00000
     11      -4.4761      1.00000
     12      -4.4580      1.00000
     13      -3.6937      1.00000
     14      -3.6475      1.00000
     15      -3.3406      1.00000
     16      -3.3354      1.00000
     17      -1.6910      1.00000
     18      -1.5785      1.00000
     19       0.7648      0.00000
     20       0.8093      0.00000
     21       1.5442      0.00000
     22       1.6911      0.00000
     23       1.9692      0.00000
     24       1.9943      0.00000
     25       2.9471      0.00000
     26       2.9994      0.00000

 k-point    33 :      -0.3333    0.1667    0.0000
  band No.  band energies     occupation 
      1     -13.5620      1.00000
      2     -13.5428      1.00000
      3     -13.3380      1.00000
      4     -13.3357      1.00000
      5      -6.6028      1.00000
      6      -6.5939      1.00000
      7      -6.1837      1.00000
      8      -6.1749      1.00000
      9      -5.1437      1.00000
     10      -5.1424      1.00000
     11      -4.5491      1.00000
     12      -4.5322      1.00000
     13      -3.6921      1.00000
     14      -3.6429      1.00000
     15      -3.1605      1.00000
     16      -3.1498      1.00000
     17      -1.8581      1.00000
     18      -1.7513      1.00000
     19       0.7960      0.00000
     20       0.8118      0.00000
     21       1.3522      0.00000
     22       1.4594      0.00000
     23       1.8555      0.00000
     24       1.8621      0.00000
     25       2.9602      0.00000
     26       2.9916      0.00000

 k-point    34 :      -0.2500    0.1667    0.0000
  band No.  band energies     occupation 
      1     -13.9172      1.00000
      2     -13.9039      1.00000
      3     -13.5160      1.00000
      4     -13.5143      1.00000
      5      -6.3708      1.00000
      6      -6.3631      1.00000
      7      -5.6419      1.00000
      8      -5.6268      1.00000
      9      -5.0437      1.00000
     10      -5.0341      1.00000
     11      -4.6283      1.00000
     12      -4.6095      1.00000
     13      -3.5592      1.00000
     14      -3.5002      1.00000
     15      -2.7867      1.00000
     16      -2.7652      1.00000
     17      -2.1033      1.00000
     18      -2.0061      1.00000
     19       0.5667      0.00000
     20       0.6336      0.00000
     21       1.1812      0.00000
     22       1.1886      0.00000
     23       1.5506      0.00000
     24       1.5797      0.00000
     25       2.9065      0.00000
     26       2.9142      0.00000

 k-point    35 :      -0.1667    0.1667    0.0000
  band No.  band energies     occupation 
      1     -14.3482      1.00000
      2     -14.3410      1.00000
      3     -13.7344      1.00000
      4     -13.7334      1.00000
      5      -6.1730      1.00000
      6      -6.1586      1.00000
      7      -5.1086      1.00000
      8      -5.1033      1.00000
      9      -4.9494      1.00000
     10      -4.9205      1.00000
     11      -4.5021      1.00000
     12      -4.4755      1.00000
     13      -3.2478      1.00000
     14      -3.1791      1.00000
     15      -2.4766      1.00000
     16      -2.4417      1.00000
     17      -2.1854      1.00000
     18      -2.1084      1.00000
     19       0.4174      0.00000
     20       0.4825      0.00000
     21       1.0502      0.00000
     22       1.0634      0.00000
     23       1.2465      0.00000
     24       1.3038      0.00000
     25       2.6720      0.00000
     26       2.7095      0.00000

 k-point    36 :      -0.0833    0.1667    0.0000
  band No.  band energies     occupation 
      1     -14.7335      1.00000
      2     -14.7308      1.00000
      3     -13.9306      1.00000
      4     -13.9302      1.00000
      5      -6.2709      1.00000
      6      -6.2654      1.00000
      7      -4.9162      1.00000
      8      -4.9113      1.00000
      9      -4.5463      1.00000
     10      -4.5381      1.00000
     11      -3.8266      1.00000
     12      -3.8254      1.00000
     13      -3.2041      1.00000
     14      -3.1675      1.00000
     15      -2.4215      1.00000
     16      -2.3899      1.00000
     17      -1.9974      1.00000
     18      -1.9697      1.00000
     19       0.6024      0.00000
     20       0.6249      0.00000
     21       1.0356      0.00000
     22       1.0419      0.00000
     23       1.1532      0.00000
     24       1.2200      0.00000
     25       2.2883      0.00000
     26       2.3343      0.00000

 k-point    37 :       0.0000    0.2500    0.0000
  band No.  band energies     occupation 
      1     -14.5718      1.00000
      2     -14.5718      1.00000
      3     -13.8506      1.00000
      4     -13.8506      1.00000
      5      -6.2405      1.00000
      6      -6.2405      1.00000
      7      -5.0791      1.00000
      8      -5.0791      1.00000
      9      -4.8784      1.00000
     10      -4.8784      1.00000
     11      -3.6928      1.00000
     12      -3.6928      1.00000
     13      -2.9715      1.00000
     14      -2.9715      1.00000
     15      -2.7546      1.00000
     16      -2.7546      1.00000
     17      -2.1463      1.00000
     18      -2.1463      1.00000
     19       0.6721      0.00000
     20       0.6721      0.00000
     21       0.9479      0.00000
     22       0.9479      0.00000
     23       1.4997      0.00000
     24       1.4997      0.00000
     25       2.3400      0.00000
     26       2.3400      0.00000

 k-point    38 :       0.0833    0.2500    0.0000
  band No.  band energies     occupation 
      1     -14.7335      1.00000
      2     -14.7308      1.00000
      3     -13.9306      1.00000
      4     -13.9302      1.00000
      5      -6.2709      1.00000
      6      -6.2654      1.00000
      7      -4.9162      1.00000
      8      -4.9113      1.00000
      9      -4.5463      1.00000
     10      -4.5381      1.00000
     11      -3.8266      1.00000
     12      -3.8254      1.00000
     13      -3.2041      1.00000
     14      -3.1675      1.00000
     15      -2.4215      1.00000
     16      -2.3899      1.00000
     17      -1.9974      1.00000
     18      -1.9697      1.00000
     19       0.6024      0.00000
     20       0.6249      0.00000
     21       1.0356      0.00000
     22       1.0419      0.00000
     23       1.1532      0.00000
     24       1.2200      0.00000
     25       2.2883      0.00000
     26       2.3343      0.00000

 k-point    39 :       0.1667    0.2500    0.0000
  band No.  band energies     occupation 
      1     -14.7335      1.00000
      2     -14.7308      1.00000
      3     -13.9306      1.00000
      4     -13.9302      1.00000
      5      -6.2709      1.00000
      6      -6.2654      1.00000
      7      -4.9162      1.00000
      8      -4.9113      1.00000
      9      -4.5463      1.00000
     10      -4.5381      1.00000
     11      -3.8266      1.00000
     12      -3.8254      1.00000
     13      -3.2041      1.00000
     14      -3.1675      1.00000
     15      -2.4215      1.00000
     16      -2.3899      1.00000
     17      -1.9974      1.00000
     18      -1.9697      1.00000
     19       0.6024      0.00000
     20       0.6249      0.00000
     21       1.0356      0.00000
     22       1.0419      0.00000
     23       1.1532      0.00000
     24       1.2200      0.00000
     25       2.2883      0.00000
     26       2.3343      0.00000

 k-point    40 :       0.2500    0.2500    0.0000
  band No.  band energies     occupation 
      1     -14.5718      1.00000
      2     -14.5718      1.00000
      3     -13.8506      1.00000
      4     -13.8506      1.00000
      5      -6.2405      1.00000
      6      -6.2405      1.00000
      7      -5.0791      1.00000
      8      -5.0791      1.00000
      9      -4.8784      1.00000
     10      -4.8784      1.00000
     11      -3.6928      1.00000
     12      -3.6928      1.00000
     13      -2.9715      1.00000
     14      -2.9715      1.00000
     15      -2.7546      1.00000
     16      -2.7546      1.00000
     17      -2.1463      1.00000
     18      -2.1463      1.00000
     19       0.6721      0.00000
     20       0.6721      0.00000
     21       0.9479      0.00000
     22       0.9479      0.00000
     23       1.4997      0.00000
     24       1.4997      0.00000
     25       2.3400      0.00000
     26       2.3400      0.00000

 k-point    41 :       0.3333    0.2500    0.0000
  band No.  band energies     occupation 
      1     -14.2812      1.00000
      2     -14.2758      1.00000
      3     -13.7035      1.00000
      4     -13.7028      1.00000
      5      -6.2712      1.00000
      6      -6.2628      1.00000
      7      -5.2060      1.00000
      8      -5.1974      1.00000
      9      -5.1552      1.00000
     10      -5.1503      1.00000
     11      -4.2096      1.00000
     12      -4.2029      1.00000
     13      -3.0192      1.00000
     14      -2.9554      1.00000
     15      -2.7346      1.00000
     16      -2.7090      1.00000
     17      -2.2431      1.00000
     18      -2.1726      1.00000
     19       0.5396      0.00000
     20       0.5965      0.00000
     21       0.9919      0.00000
     22       1.0127      0.00000
     23       1.5335      0.00000
     24       1.5823      0.00000
     25       2.6143      0.00000
     26       2.6498      0.00000

 k-point    42 :       0.4167    0.2500    0.0000
  band No.  band energies     occupation 
      1     -13.9172      1.00000
      2     -13.9039      1.00000
      3     -13.5160      1.00000
      4     -13.5143      1.00000
      5      -6.3708      1.00000
      6      -6.3631      1.00000
      7      -5.6419      1.00000
      8      -5.6268      1.00000
      9      -5.0437      1.00000
     10      -5.0341      1.00000
     11      -4.6283      1.00000
     12      -4.6095      1.00000
     13      -3.5592      1.00000
     14      -3.5002      1.00000
     15      -2.7867      1.00000
     16      -2.7652      1.00000
     17      -2.1033      1.00000
     18      -2.0061      1.00000
     19       0.5667      0.00000
     20       0.6336      0.00000
     21       1.1812      0.00000
     22       1.1886      0.00000
     23       1.5506      0.00000
     24       1.5798      0.00000
     25       2.9065      0.00000
     26       2.9142      0.00000

 k-point    43 :       0.5000    0.2500    0.0000
  band No.  band energies     occupation 
      1     -13.5717      1.00000
      2     -13.5498      1.00000
      3     -13.3342      1.00000
      4     -13.3315      1.00000
      5      -6.3970      1.00000
      6      -6.3926      1.00000
      7      -6.1860      1.00000
      8      -6.1748      1.00000
      9      -4.9261      1.00000
     10      -4.9162      1.00000
     11      -4.6154      1.00000
     12      -4.5950      1.00000
     13      -4.2444      1.00000
     14      -4.2033      1.00000
     15      -3.0817      1.00000
     16      -3.0722      1.00000
     17      -1.8801      1.00000
     18      -1.7695      1.00000
     19       0.7522      0.00000
     20       0.7534      0.00000
     21       1.3842      0.00000
     22       1.4890      0.00000
     23       1.6068      0.00000
     24       1.6187      0.00000
     25       3.1067      0.00000
     26       3.1466      0.00000

 k-point    44 :      -0.4167    0.2500    0.0000
  band No.  band energies     occupation 
      1     -13.3567      1.00000
      2     -13.3286      1.00000
      3     -13.2187      1.00000
      4     -13.2155      1.00000
      5      -6.5296      1.00000
      6      -6.5217      1.00000
      7      -6.3039      1.00000
      8      -6.2815      1.00000
      9      -5.1311      1.00000
     10      -5.1221      1.00000
     11      -4.5537      1.00000
     12      -4.5209      1.00000
     13      -4.4365      1.00000
     14      -4.3989      1.00000
     15      -3.4176      1.00000
     16      -3.4121      1.00000
     17      -1.5905      1.00000
     18      -1.4626      1.00000
     19       0.5880      0.00000
     20       0.6064      0.00000
     21       1.6068      0.00000
     22       1.6206      0.00000
     23       1.7828      0.00000
     24       1.9109      0.00000
     25       3.2479      0.00000
     26       3.3177      0.00000

 k-point    45 :      -0.3333    0.2500    0.0000
  band No.  band energies     occupation 
      1     -13.3567      1.00000
      2     -13.3287      1.00000
      3     -13.2187      1.00000
      4     -13.2155      1.00000
      5      -6.5296      1.00000
      6      -6.5217      1.00000
      7      -6.3039      1.00000
      8      -6.2815      1.00000
      9      -5.1311      1.00000
     10      -5.1221      1.00000
     11      -4.5537      1.00000
     12      -4.5209      1.00000
     13      -4.4365      1.00000
     14      -4.3989      1.00000
     15      -3.4176      1.00000
     16      -3.4121      1.00000
     17      -1.5905      1.00000
     18      -1.4626      1.00000
     19       0.5880      0.00000
     20       0.6064      0.00000
     21       1.6068      0.00000
     22       1.6206      0.00000
     23       1.7828      0.00000
     24       1.9109      0.00000
     25       3.2479      0.00000
     26       3.3177      0.00000

 k-point    46 :      -0.2500    0.2500    0.0000
  band No.  band energies     occupation 
      1     -13.5717      1.00000
      2     -13.5498      1.00000
      3     -13.3342      1.00000
      4     -13.3315      1.00000
      5      -6.3970      1.00000
      6      -6.3926      1.00000
      7      -6.1860      1.00000
      8      -6.1748      1.00000
      9      -4.9261      1.00000
     10      -4.9162      1.00000
     11      -4.6154      1.00000
     12      -4.5950      1.00000
     13      -4.2444      1.00000
     14      -4.2033      1.00000
     15      -3.0817      1.00000
     16      -3.0722      1.00000
     17      -1.8801      1.00000
     18      -1.7695      1.00000
     19       0.7522      0.00000
     20       0.7534      0.00000
     21       1.3842      0.00000
     22       1.4890      0.00000
     23       1.6068      0.00000
     24       1.6187      0.00000
     25       3.1068      0.00000
     26       3.1466      0.00000

 k-point    47 :      -0.1667    0.2500    0.0000
  band No.  band energies     occupation 
      1     -13.9172      1.00000
      2     -13.9039      1.00000
      3     -13.5160      1.00000
      4     -13.5143      1.00000
      5      -6.3708      1.00000
      6      -6.3631      1.00000
      7      -5.6419      1.00000
      8      -5.6268      1.00000
      9      -5.0437      1.00000
     10      -5.0341      1.00000
     11      -4.6283      1.00000
     12      -4.6095      1.00000
     13      -3.5592      1.00000
     14      -3.5002      1.00000
     15      -2.7867      1.00000
     16      -2.7652      1.00000
     17      -2.1033      1.00000
     18      -2.0061      1.00000
     19       0.5667      0.00000
     20       0.6336      0.00000
     21       1.1812      0.00000
     22       1.1886      0.00000
     23       1.5506      0.00000
     24       1.5797      0.00000
     25       2.9065      0.00000
     26       2.9142      0.00000

 k-point    48 :      -0.0833    0.2500    0.0000
  band No.  band energies     occupation 
      1     -14.2812      1.00000
      2     -14.2758      1.00000
      3     -13.7035      1.00000
      4     -13.7028      1.00000
      5      -6.2712      1.00000
      6      -6.2628      1.00000
      7      -5.2060      1.00000
      8      -5.1974      1.00000
      9      -5.1552      1.00000
     10      -5.1503      1.00000
     11      -4.2096      1.00000
     12      -4.2029      1.00000
     13      -3.0192      1.00000
     14      -2.9554      1.00000
     15      -2.7346      1.00000
     16      -2.7090      1.00000
     17      -2.2431      1.00000
     18      -2.1726      1.00000
     19       0.5396      0.00000
     20       0.5965      0.00000
     21       0.9919      0.00000
     22       1.0127      0.00000
     23       1.5335      0.00000
     24       1.5823      0.00000
     25       2.6142      0.00000
     26       2.6497      0.00000

 k-point    49 :       0.0000    0.3333    0.0000
  band No.  band energies     occupation 
      1     -14.0932      1.00000
      2     -14.0932      1.00000
      3     -13.6150      1.00000
      4     -13.6150      1.00000
      5      -6.4815      1.00000
      6      -6.4815      1.00000
      7      -5.5134      1.00000
      8      -5.5134      1.00000
      9      -5.2190      1.00000
     10      -5.2190      1.00000
     11      -4.0596      1.00000
     12      -4.0596      1.00000
     13      -3.0791      1.00000
     14      -3.0791      1.00000
     15      -2.5664      1.00000
     16      -2.5664      1.00000
     17      -2.3515      1.00000
     18      -2.3515      1.00000
     19       0.7974      0.00000
     20       0.7974      0.00000
     21       0.8857      0.00000
     22       0.8857      0.00000
     23       1.9758      0.00000
     24       1.9758      0.00000
     25       2.6070      0.00000
     26       2.6070      0.00000

 k-point    50 :       0.0833    0.3333    0.0000
  band No.  band energies     occupation 
      1     -14.2812      1.00000
      2     -14.2758      1.00000
      3     -13.7035      1.00000
      4     -13.7028      1.00000
      5      -6.2712      1.00000
      6      -6.2628      1.00000
      7      -5.2060      1.00000
      8      -5.1974      1.00000
      9      -5.1552      1.00000
     10      -5.1503      1.00000
     11      -4.2096      1.00000
     12      -4.2029      1.00000
     13      -3.0192      1.00000
     14      -2.9554      1.00000
     15      -2.7346      1.00000
     16      -2.7090      1.00000
     17      -2.2431      1.00000
     18      -2.1726      1.00000
     19       0.5396      0.00000
     20       0.5965      0.00000
     21       0.9919      0.00000
     22       1.0127      0.00000
     23       1.5335      0.00000
     24       1.5823      0.00000
     25       2.6142      0.00000
     26       2.6497      0.00000

 k-point    51 :       0.1667    0.3333    0.0000
  band No.  band energies     occupation 
      1     -14.3482      1.00000
      2     -14.3410      1.00000
      3     -13.7344      1.00000
      4     -13.7334      1.00000
      5      -6.1730      1.00000
      6      -6.1586      1.00000
      7      -5.1086      1.00000
      8      -5.1033      1.00000
      9      -4.9493      1.00000
     10      -4.9205      1.00000
     11      -4.5021      1.00000
     12      -4.4755      1.00000
     13      -3.2478      1.00000
     14      -3.1791      1.00000
     15      -2.4766      1.00000
     16      -2.4417      1.00000
     17      -2.1854      1.00000
     18      -2.1084      1.00000
     19       0.4174      0.00000
     20       0.4825      0.00000
     21       1.0502      0.00000
     22       1.0634      0.00000
     23       1.2465      0.00000
     24       1.3039      0.00000
     25       2.6720      0.00000
     26       2.7095      0.00000

 k-point    52 :       0.2500    0.3333    0.0000
  band No.  band energies     occupation 
      1     -14.2812      1.00000
      2     -14.2758      1.00000
      3     -13.7035      1.00000
      4     -13.7028      1.00000
      5      -6.2712      1.00000
      6      -6.2628      1.00000
      7      -5.2060      1.00000
      8      -5.1974      1.00000
      9      -5.1552      1.00000
     10      -5.1503      1.00000
     11      -4.2096      1.00000
     12      -4.2029      1.00000
     13      -3.0192      1.00000
     14      -2.9554      1.00000
     15      -2.7346      1.00000
     16      -2.7090      1.00000
     17      -2.2431      1.00000
     18      -2.1726      1.00000
     19       0.5396      0.00000
     20       0.5965      0.00000
     21       0.9919      0.00000
     22       1.0127      0.00000
     23       1.5335      0.00000
     24       1.5823      0.00000
     25       2.6142      0.00000
     26       2.6497      0.00000

 k-point    53 :       0.3333    0.3333    0.0000
  band No.  band energies     occupation 
      1     -14.0932      1.00000
      2     -14.0932      1.00000
      3     -13.6150      1.00000
      4     -13.6150      1.00000
      5      -6.4815      1.00000
      6      -6.4815      1.00000
      7      -5.5134      1.00000
      8      -5.5134      1.00000
      9      -5.2190      1.00000
     10      -5.2190      1.00000
     11      -4.0596      1.00000
     12      -4.0596      1.00000
     13      -3.0791      1.00000
     14      -3.0791      1.00000
     15      -2.5664      1.00000
     16      -2.5664      1.00000
     17      -2.3515      1.00000
     18      -2.3515      1.00000
     19       0.7974      0.00000
     20       0.7974      0.00000
     21       0.8857      0.00000
     22       0.8857      0.00000
     23       1.9758      0.00000
     24       1.9758      0.00000
     25       2.6070      0.00000
     26       2.6070      0.00000

 k-point    54 :       0.4167    0.3333    0.0000
  band No.  band energies     occupation 
      1     -13.8334      1.00000
      2     -13.8247      1.00000
      3     -13.4842      1.00000
      4     -13.4831      1.00000
      5      -6.6379      1.00000
      6      -6.6377      1.00000
      7      -5.8126      1.00000
      8      -5.8063      1.00000
      9      -5.2078      1.00000
     10      -5.2059      1.00000
     11      -4.3788      1.00000
     12      -4.3717      1.00000
     13      -3.0801      1.00000
     14      -3.0753      1.00000
     15      -2.9273      1.00000
     16      -2.8748      1.00000
     17      -2.1027      1.00000
     18      -2.0149      1.00000
     19       0.7228      0.00000
     20       0.7602      0.00000
     21       1.1252      0.00000
     22       1.1362      0.00000
     23       2.0029      0.00000
     24       2.0347      0.00000
     25       2.7555      0.00000
     26       2.7756      0.00000

 k-point    55 :       0.5000    0.3333    0.0000
  band No.  band energies     occupation 
      1     -13.5620      1.00000
      2     -13.5428      1.00000
      3     -13.3380      1.00000
      4     -13.3357      1.00000
      5      -6.6028      1.00000
      6      -6.5939      1.00000
      7      -6.1837      1.00000
      8      -6.1748      1.00000
      9      -5.1437      1.00000
     10      -5.1424      1.00000
     11      -4.5491      1.00000
     12      -4.5322      1.00000
     13      -3.6921      1.00000
     14      -3.6429      1.00000
     15      -3.1606      1.00000
     16      -3.1498      1.00000
     17      -1.8581      1.00000
     18      -1.7513      1.00000
     19       0.7960      0.00000
     20       0.8118      0.00000
     21       1.3522      0.00000
     22       1.4594      0.00000
     23       1.8555      0.00000
     24       1.8621      0.00000
     25       2.9602      0.00000
     26       2.9916      0.00000

 k-point    56 :      -0.4167    0.3333    0.0000
  band No.  band energies     occupation 
      1     -13.3567      1.00000
      2     -13.3286      1.00000
      3     -13.2187      1.00000
      4     -13.2155      1.00000
      5      -6.5296      1.00000
      6      -6.5217      1.00000
      7      -6.3039      1.00000
      8      -6.2815      1.00000
      9      -5.1311      1.00000
     10      -5.1221      1.00000
     11      -4.5537      1.00000
     12      -4.5209      1.00000
     13      -4.4365      1.00000
     14      -4.3989      1.00000
     15      -3.4176      1.00000
     16      -3.4121      1.00000
     17      -1.5905      1.00000
     18      -1.4626      1.00000
     19       0.5880      0.00000
     20       0.6064      0.00000
     21       1.6068      0.00000
     22       1.6206      0.00000
     23       1.7828      0.00000
     24       1.9109      0.00000
     25       3.2479      0.00000
     26       3.3177      0.00000

 k-point    57 :      -0.3333    0.3333    0.0000
  band No.  band energies     occupation 
      1     -13.2804      1.00000
      2     -13.2488      1.00000
      3     -13.1719      1.00000
      4     -13.1685      1.00000
      5      -6.6676      1.00000
      6      -6.6605      1.00000
      7      -5.9228      1.00000
      8      -5.8875      1.00000
      9      -5.4023      1.00000
     10      -5.3710      1.00000
     11      -4.8749      1.00000
     12      -4.8676      1.00000
     13      -4.3051      1.00000
     14      -4.2559      1.00000
     15      -3.6138      1.00000
     16      -3.5900      1.00000
     17      -1.4220      1.00000
     18      -1.2749      1.00000
     19       0.3987      0.00000
     20       0.4009      0.00000
     21       1.4997      0.00000
     22       1.5303      0.00000
     23       1.9952      0.00000
     24       2.1382      0.00000
     25       3.3936      0.00000
     26       3.4746      0.00000

 k-point    58 :      -0.2500    0.3333    0.0000
  band No.  band energies     occupation 
      1     -13.3567      1.00000
      2     -13.3287      1.00000
      3     -13.2187      1.00000
      4     -13.2155      1.00000
      5      -6.5296      1.00000
      6      -6.5217      1.00000
      7      -6.3039      1.00000
      8      -6.2815      1.00000
      9      -5.1311      1.00000
     10      -5.1221      1.00000
     11      -4.5537      1.00000
     12      -4.5209      1.00000
     13      -4.4365      1.00000
     14      -4.3989      1.00000
     15      -3.4176      1.00000
     16      -3.4121      1.00000
     17      -1.5905      1.00000
     18      -1.4626      1.00000
     19       0.5880      0.00000
     20       0.6064      0.00000
     21       1.6068      0.00000
     22       1.6206      0.00000
     23       1.7828      0.00000
     24       1.9109      0.00000
     25       3.2479      0.00000
     26       3.3177      0.00000

 k-point    59 :      -0.1667    0.3333    0.0000
  band No.  band energies     occupation 
      1     -13.5620      1.00000
      2     -13.5428      1.00000
      3     -13.3380      1.00000
      4     -13.3357      1.00000
      5      -6.6028      1.00000
      6      -6.5939      1.00000
      7      -6.1837      1.00000
      8      -6.1749      1.00000
      9      -5.1437      1.00000
     10      -5.1424      1.00000
     11      -4.5491      1.00000
     12      -4.5322      1.00000
     13      -3.6921      1.00000
     14      -3.6429      1.00000
     15      -3.1605      1.00000
     16      -3.1498      1.00000
     17      -1.8581      1.00000
     18      -1.7513      1.00000
     19       0.7960      0.00000
     20       0.8118      0.00000
     21       1.3522      0.00000
     22       1.4594      0.00000
     23       1.8555      0.00000
     24       1.8621      0.00000
     25       2.9602      0.00000
     26       2.9916      0.00000

 k-point    60 :      -0.0833    0.3333    0.0000
  band No.  band energies     occupation 
      1     -13.8334      1.00000
      2     -13.8247      1.00000
      3     -13.4842      1.00000
      4     -13.4831      1.00000
      5      -6.6379      1.00000
      6      -6.6377      1.00000
      7      -5.8126      1.00000
      8      -5.8063      1.00000
      9      -5.2078      1.00000
     10      -5.2059      1.00000
     11      -4.3788      1.00000
     12      -4.3717      1.00000
     13      -3.0801      1.00000
     14      -3.0753      1.00000
     15      -2.9273      1.00000
     16      -2.8748      1.00000
     17      -2.1027      1.00000
     18      -2.0149      1.00000
     19       0.7228      0.00000
     20       0.7602      0.00000
     21       1.1252      0.00000
     22       1.1362      0.00000
     23       2.0029      0.00000
     24       2.0347      0.00000
     25       2.7555      0.00000
     26       2.7756      0.00000

 k-point    61 :       0.0000    0.4167    0.0000
  band No.  band energies     occupation 
      1     -13.6900      1.00000
      2     -13.6900      1.00000
      3     -13.4236      1.00000
      4     -13.4236      1.00000
      5      -6.8951      1.00000
      6      -6.8951      1.00000
      7      -5.9884      1.00000
      8      -5.9884      1.00000
      9      -5.3121      1.00000
     10      -5.3121      1.00000
     11      -4.2978      1.00000
     12      -4.2978      1.00000
     13      -3.2739      1.00000
     14      -3.2739      1.00000
     15      -2.3011      1.00000
     16      -2.3011      1.00000
     17      -2.1695      1.00000
     18      -2.1695      1.00000
     19       0.8382      0.00000
     20       0.8382      0.00000
     21       1.1777      0.00000
     22       1.1777      0.00000
     23       2.3458      0.00000
     24       2.3458      0.00000
     25       2.7498      0.00000
     26       2.7498      0.00000

 k-point    62 :       0.0833    0.4167    0.0000
  band No.  band energies     occupation 
      1     -13.8334      1.00000
      2     -13.8247      1.00000
      3     -13.4842      1.00000
      4     -13.4831      1.00000
      5      -6.6379      1.00000
      6      -6.6377      1.00000
      7      -5.8126      1.00000
      8      -5.8063      1.00000
      9      -5.2078      1.00000
     10      -5.2059      1.00000
     11      -4.3788      1.00000
     12      -4.3717      1.00000
     13      -3.0801      1.00000
     14      -3.0753      1.00000
     15      -2.9273      1.00000
     16      -2.8748      1.00000
     17      -2.1027      1.00000
     18      -2.0149      1.00000
     19       0.7228      0.00000
     20       0.7602      0.00000
     21       1.1252      0.00000
     22       1.1362      0.00000
     23       2.0029      0.00000
     24       2.0347      0.00000
     25       2.7555      0.00000
     26       2.7756      0.00000

 k-point    63 :       0.1667    0.4167    0.0000
  band No.  band energies     occupation 
      1     -13.9172      1.00000
      2     -13.9039      1.00000
      3     -13.5160      1.00000
      4     -13.5143      1.00000
      5      -6.3708      1.00000
      6      -6.3631      1.00000
      7      -5.6419      1.00000
      8      -5.6268      1.00000
      9      -5.0437      1.00000
     10      -5.0341      1.00000
     11      -4.6283      1.00000
     12      -4.6095      1.00000
     13      -3.5592      1.00000
     14      -3.5002      1.00000
     15      -2.7867      1.00000
     16      -2.7652      1.00000
     17      -2.1033      1.00000
     18      -2.0061      1.00000
     19       0.5667      0.00000
     20       0.6336      0.00000
     21       1.1812      0.00000
     22       1.1886      0.00000
     23       1.5506      0.00000
     24       1.5798      0.00000
     25       2.9065      0.00000
     26       2.9142      0.00000

 k-point    64 :       0.2500    0.4167    0.0000
  band No.  band energies     occupation 
      1     -13.9172      1.00000
      2     -13.9039      1.00000
      3     -13.5160      1.00000
      4     -13.5143      1.00000
      5      -6.3708      1.00000
      6      -6.3631      1.00000
      7      -5.6419      1.00000
      8      -5.6268      1.00000
      9      -5.0437      1.00000
     10      -5.0341      1.00000
     11      -4.6283      1.00000
     12      -4.6095      1.00000
     13      -3.5592      1.00000
     14      -3.5002      1.00000
     15      -2.7867      1.00000
     16      -2.7652      1.00000
     17      -2.1033      1.00000
     18      -2.0061      1.00000
     19       0.5667      0.00000
     20       0.6336      0.00000
     21       1.1812      0.00000
     22       1.1886      0.00000
     23       1.5506      0.00000
     24       1.5798      0.00000
     25       2.9065      0.00000
     26       2.9142      0.00000

 k-point    65 :       0.3333    0.4167    0.0000
  band No.  band energies     occupation 
      1     -13.8334      1.00000
      2     -13.8247      1.00000
      3     -13.4842      1.00000
      4     -13.4831      1.00000
      5      -6.6379      1.00000
      6      -6.6377      1.00000
      7      -5.8126      1.00000
      8      -5.8063      1.00000
      9      -5.2078      1.00000
     10      -5.2059      1.00000
     11      -4.3788      1.00000
     12      -4.3717      1.00000
     13      -3.0801      1.00000
     14      -3.0753      1.00000
     15      -2.9273      1.00000
     16      -2.8748      1.00000
     17      -2.1027      1.00000
     18      -2.0149      1.00000
     19       0.7228      0.00000
     20       0.7602      0.00000
     21       1.1252      0.00000
     22       1.1362      0.00000
     23       2.0029      0.00000
     24       2.0347      0.00000
     25       2.7555      0.00000
     26       2.7756      0.00000

 k-point    66 :       0.4167    0.4167    0.0000
  band No.  band energies     occupation 
      1     -13.6900      1.00000
      2     -13.6900      1.00000
      3     -13.4236      1.00000
      4     -13.4236      1.00000
      5      -6.8951      1.00000
      6      -6.8951      1.00000
      7      -5.9884      1.00000
      8      -5.9884      1.00000
      9      -5.3121      1.00000
     10      -5.3121      1.00000
     11      -4.2978      1.00000
     12      -4.2978      1.00000
     13      -3.2739      1.00000
     14      -3.2739      1.00000
     15      -2.3011      1.00000
     16      -2.3011      1.00000
     17      -2.1695      1.00000
     18      -2.1695      1.00000
     19       0.8382      0.00000
     20       0.8382      0.00000
     21       1.1777      0.00000
     22       1.1777      0.00000
     23       2.3458      0.00000
     24       2.3458      0.00000
     25       2.7498      0.00000
     26       2.7498      0.00000

 k-point    67 :       0.5000    0.4167    0.0000
  band No.  band energies     occupation 
      1     -13.5411      1.00000
      2     -13.5299      1.00000
      3     -13.3454      1.00000
      4     -13.3441      1.00000
      5      -6.9367      1.00000
      6      -6.9287      1.00000
      7      -6.1745      1.00000
      8      -6.1701      1.00000
      9      -5.3231      1.00000
     10      -5.3200      1.00000
     11      -4.4304      1.00000
     12      -4.4232      1.00000
     13      -3.2922      1.00000
     14      -3.2850      1.00000
     15      -2.8177      1.00000
     16      -2.7589      1.00000
     17      -1.8733      1.00000
     18      -1.7787      1.00000
     19       0.8595      0.00000
     20       0.8950      0.00000
     21       1.3101      0.00000
     22       1.4031      0.00000
     23       2.3838      0.00000
     24       2.3991      0.00000
     25       2.6922      0.00000
     26       2.6955      0.00000

 k-point    68 :      -0.4167    0.4167    0.0000
  band No.  band energies     occupation 
      1     -13.4210      1.00000
      2     -13.3993      1.00000
      3     -13.2681      1.00000
      4     -13.2656      1.00000
      5      -6.6980      1.00000
      6      -6.6798      1.00000
      7      -6.3818      1.00000
      8      -6.3749      1.00000
      9      -5.2586      1.00000
     10      -5.2537      1.00000
     11      -4.4761      1.00000
     12      -4.4580      1.00000
     13      -3.6937      1.00000
     14      -3.6475      1.00000
     15      -3.3406      1.00000
     16      -3.3354      1.00000
     17      -1.6910      1.00000
     18      -1.5785      1.00000
     19       0.7648      0.00000
     20       0.8093      0.00000
     21       1.5442      0.00000
     22       1.6911      0.00000
     23       1.9692      0.00000
     24       1.9943      0.00000
     25       2.9471      0.00000
     26       2.9994      0.00000

 k-point    69 :      -0.3333    0.4167    0.0000
  band No.  band energies     occupation 
      1     -13.3567      1.00000
      2     -13.3286      1.00000
      3     -13.2187      1.00000
      4     -13.2155      1.00000
      5      -6.5296      1.00000
      6      -6.5217      1.00000
      7      -6.3039      1.00000
      8      -6.2815      1.00000
      9      -5.1311      1.00000
     10      -5.1221      1.00000
     11      -4.5537      1.00000
     12      -4.5209      1.00000
     13      -4.4365      1.00000
     14      -4.3989      1.00000
     15      -3.4176      1.00000
     16      -3.4121      1.00000
     17      -1.5905      1.00000
     18      -1.4626      1.00000
     19       0.5880      0.00000
     20       0.6064      0.00000
     21       1.6068      0.00000
     22       1.6206      0.00000
     23       1.7828      0.00000
     24       1.9109      0.00000
     25       3.2479      0.00000
     26       3.3177      0.00000

 k-point    70 :      -0.2500    0.4167    0.0000
  band No.  band energies     occupation 
      1     -13.3567      1.00000
      2     -13.3286      1.00000
      3     -13.2187      1.00000
      4     -13.2155      1.00000
      5      -6.5296      1.00000
      6      -6.5217      1.00000
      7      -6.3039      1.00000
      8      -6.2815      1.00000
      9      -5.1311      1.00000
     10      -5.1221      1.00000
     11      -4.5537      1.00000
     12      -4.5209      1.00000
     13      -4.4365      1.00000
     14      -4.3989      1.00000
     15      -3.4176      1.00000
     16      -3.4121      1.00000
     17      -1.5905      1.00000
     18      -1.4626      1.00000
     19       0.5880      0.00000
     20       0.6064      0.00000
     21       1.6068      0.00000
     22       1.6206      0.00000
     23       1.7828      0.00000
     24       1.9109      0.00000
     25       3.2479      0.00000
     26       3.3177      0.00000

 k-point    71 :      -0.1667    0.4167    0.0000
  band No.  band energies     occupation 
      1     -13.4210      1.00000
      2     -13.3993      1.00000
      3     -13.2681      1.00000
      4     -13.2656      1.00000
      5      -6.6980      1.00000
      6      -6.6798      1.00000
      7      -6.3818      1.00000
      8      -6.3749      1.00000
      9      -5.2586      1.00000
     10      -5.2537      1.00000
     11      -4.4761      1.00000
     12      -4.4580      1.00000
     13      -3.6937      1.00000
     14      -3.6475      1.00000
     15      -3.3406      1.00000
     16      -3.3354      1.00000
     17      -1.6910      1.00000
     18      -1.5785      1.00000
     19       0.7648      0.00000
     20       0.8093      0.00000
     21       1.5442      0.00000
     22       1.6911      0.00000
     23       1.9692      0.00000
     24       1.9943      0.00000
     25       2.9471      0.00000
     26       2.9994      0.00000

 k-point    72 :      -0.0833    0.4167    0.0000
  band No.  band energies     occupation 
      1     -13.5411      1.00000
      2     -13.5299      1.00000
      3     -13.3454      1.00000
      4     -13.3441      1.00000
      5      -6.9367      1.00000
      6      -6.9287      1.00000
      7      -6.1745      1.00000
      8      -6.1701      1.00000
      9      -5.3231      1.00000
     10      -5.3200      1.00000
     11      -4.4304      1.00000
     12      -4.4232      1.00000
     13      -3.2922      1.00000
     14      -3.2850      1.00000
     15      -2.8177      1.00000
     16      -2.7589      1.00000
     17      -1.8733      1.00000
     18      -1.7787      1.00000
     19       0.8595      0.00000
     20       0.8950      0.00000
     21       1.3101      0.00000
     22       1.4031      0.00000
     23       2.3838      0.00000
     24       2.3991      0.00000
     25       2.6922      0.00000
     26       2.6955      0.00000

 k-point    73 :       0.0000    0.5000    0.0000
  band No.  band energies     occupation 
      1     -13.5269      1.00000
      2     -13.5269      1.00000
      3     -13.3487      1.00000
      4     -13.3487      1.00000
      5      -7.0748      1.00000
      6      -7.0748      1.00000
      7      -6.1665      1.00000
      8      -6.1665      1.00000
      9      -5.3795      1.00000
     10      -5.3795      1.00000
     11      -4.3799      1.00000
     12      -4.3799      1.00000
     13      -3.3359      1.00000
     14      -3.3359      1.00000
     15      -2.2061      1.00000
     16      -2.2061      1.00000
     17      -2.0145      1.00000
     18      -2.0145      1.00000
     19       0.8792      0.00000
     20       0.8792      0.00000
     21       1.3540      0.00000
     22       1.3540      0.00000
     23       2.4728      0.00000
     24       2.4728      0.00000
     25       2.7930      0.00000
     26       2.7930      0.00000

 k-point    74 :       0.0833    0.5000    0.0000
  band No.  band energies     occupation 
      1     -13.5411      1.00000
      2     -13.5299      1.00000
      3     -13.3454      1.00000
      4     -13.3441      1.00000
      5      -6.9367      1.00000
      6      -6.9287      1.00000
      7      -6.1745      1.00000
      8      -6.1701      1.00000
      9      -5.3231      1.00000
     10      -5.3200      1.00000
     11      -4.4304      1.00000
     12      -4.4232      1.00000
     13      -3.2922      1.00000
     14      -3.2850      1.00000
     15      -2.8177      1.00000
     16      -2.7589      1.00000
     17      -1.8733      1.00000
     18      -1.7787      1.00000
     19       0.8595      0.00000
     20       0.8950      0.00000
     21       1.3101      0.00000
     22       1.4031      0.00000
     23       2.3838      0.00000
     24       2.3991      0.00000
     25       2.6922      0.00000
     26       2.6955      0.00000

 k-point    75 :       0.1667    0.5000    0.0000
  band No.  band energies     occupation 
      1     -13.5620      1.00000
      2     -13.5428      1.00000
      3     -13.3380      1.00000
      4     -13.3357      1.00000
      5      -6.6028      1.00000
      6      -6.5939      1.00000
      7      -6.1837      1.00000
      8      -6.1748      1.00000
      9      -5.1437      1.00000
     10      -5.1424      1.00000
     11      -4.5491      1.00000
     12      -4.5322      1.00000
     13      -3.6921      1.00000
     14      -3.6429      1.00000
     15      -3.1605      1.00000
     16      -3.1498      1.00000
     17      -1.8581      1.00000
     18      -1.7513      1.00000
     19       0.7960      0.00000
     20       0.8118      0.00000
     21       1.3522      0.00000
     22       1.4594      0.00000
     23       1.8555      0.00000
     24       1.8621      0.00000
     25       2.9602      0.00000
     26       2.9915      0.00000

 k-point    76 :       0.2500    0.5000    0.0000
  band No.  band energies     occupation 
      1     -13.5717      1.00000
      2     -13.5498      1.00000
      3     -13.3342      1.00000
      4     -13.3315      1.00000
      5      -6.3970      1.00000
      6      -6.3926      1.00000
      7      -6.1860      1.00000
      8      -6.1748      1.00000
      9      -4.9261      1.00000
     10      -4.9162      1.00000
     11      -4.6154      1.00000
     12      -4.5950      1.00000
     13      -4.2444      1.00000
     14      -4.2033      1.00000
     15      -3.0817      1.00000
     16      -3.0722      1.00000
     17      -1.8801      1.00000
     18      -1.7695      1.00000
     19       0.7522      0.00000
     20       0.7534      0.00000
     21       1.3842      0.00000
     22       1.4890      0.00000
     23       1.6068      0.00000
     24       1.6187      0.00000
     25       3.1067      0.00000
     26       3.1466      0.00000

 k-point    77 :       0.3333    0.5000    0.0000
  band No.  band energies     occupation 
      1     -13.5620      1.00000
      2     -13.5428      1.00000
      3     -13.3380      1.00000
      4     -13.3357      1.00000
      5      -6.6028      1.00000
      6      -6.5939      1.00000
      7      -6.1837      1.00000
      8      -6.1748      1.00000
      9      -5.1437      1.00000
     10      -5.1424      1.00000
     11      -4.5491      1.00000
     12      -4.5322      1.00000
     13      -3.6921      1.00000
     14      -3.6429      1.00000
     15      -3.1606      1.00000
     16      -3.1498      1.00000
     17      -1.8581      1.00000
     18      -1.7513      1.00000
     19       0.7960      0.00000
     20       0.8118      0.00000
     21       1.3522      0.00000
     22       1.4594      0.00000
     23       1.8555      0.00000
     24       1.8621      0.00000
     25       2.9602      0.00000
     26       2.9915      0.00000

 k-point    78 :       0.4167    0.5000    0.0000
  band No.  band energies     occupation 
      1     -13.5411      1.00000
      2     -13.5299      1.00000
      3     -13.3454      1.00000
      4     -13.3441      1.00000
      5      -6.9367      1.00000
      6      -6.9287      1.00000
      7      -6.1745      1.00000
      8      -6.1701      1.00000
      9      -5.3231      1.00000
     10      -5.3200      1.00000
     11      -4.4304      1.00000
     12      -4.4232      1.00000
     13      -3.2922      1.00000
     14      -3.2850      1.00000
     15      -2.8177      1.00000
     16      -2.7589      1.00000
     17      -1.8733      1.00000
     18      -1.7787      1.00000
     19       0.8595      0.00000
     20       0.8950      0.00000
     21       1.3101      0.00000
     22       1.4031      0.00000
     23       2.3838      0.00000
     24       2.3991      0.00000
     25       2.6922      0.00000
     26       2.6955      0.00000

 k-point    79 :       0.5000    0.5000    0.0000
  band No.  band energies     occupation 
      1     -13.5269      1.00000
      2     -13.5269      1.00000
      3     -13.3487      1.00000
      4     -13.3487      1.00000
      5      -7.0748      1.00000
      6      -7.0748      1.00000
      7      -6.1665      1.00000
      8      -6.1665      1.00000
      9      -5.3795      1.00000
     10      -5.3795      1.00000
     11      -4.3799      1.00000
     12      -4.3799      1.00000
     13      -3.3359      1.00000
     14      -3.3359      1.00000
     15      -2.2061      1.00000
     16      -2.2061      1.00000
     17      -2.0145      1.00000
     18      -2.0145      1.00000
     19       0.8792      0.00000
     20       0.8792      0.00000
     21       1.3540      0.00000
     22       1.3540      0.00000
     23       2.4728      0.00000
     24       2.4728      0.00000
     25       2.7930      0.00000
     26       2.7930      0.00000

 k-point    80 :      -0.4167    0.5000    0.0000
  band No.  band energies     occupation 
      1     -13.5411      1.00000
      2     -13.5299      1.00000
      3     -13.3454      1.00000
      4     -13.3441      1.00000
      5      -6.9367      1.00000
      6      -6.9287      1.00000
      7      -6.1745      1.00000
      8      -6.1701      1.00000
      9      -5.3231      1.00000
     10      -5.3200      1.00000
     11      -4.4304      1.00000
     12      -4.4232      1.00000
     13      -3.2922      1.00000
     14      -3.2850      1.00000
     15      -2.8177      1.00000
     16      -2.7589      1.00000
     17      -1.8733      1.00000
     18      -1.7787      1.00000
     19       0.8595      0.00000
     20       0.8950      0.00000
     21       1.3101      0.00000
     22       1.4031      0.00000
     23       2.3838      0.00000
     24       2.3991      0.00000
     25       2.6922      0.00000
     26       2.6955      0.00000

 k-point    81 :      -0.3333    0.5000    0.0000
  band No.  band energies     occupation 
      1     -13.5620      1.00000
      2     -13.5428      1.00000
      3     -13.3380      1.00000
      4     -13.3357      1.00000
      5      -6.6028      1.00000
      6      -6.5939      1.00000
      7      -6.1837      1.00000
      8      -6.1748      1.00000
      9      -5.1437      1.00000
     10      -5.1424      1.00000
     11      -4.5491      1.00000
     12      -4.5322      1.00000
     13      -3.6921      1.00000
     14      -3.6429      1.00000
     15      -3.1606      1.00000
     16      -3.1498      1.00000
     17      -1.8581      1.00000
     18      -1.7513      1.00000
     19       0.7960      0.00000
     20       0.8118      0.00000
     21       1.3522      0.00000
     22       1.4594      0.00000
     23       1.8555      0.00000
     24       1.8621      0.00000
     25       2.9602      0.00000
     26       2.9916      0.00000

 k-point    82 :      -0.2500    0.5000    0.0000
  band No.  band energies     occupation 
      1     -13.5717      1.00000
      2     -13.5498      1.00000
      3     -13.3342      1.00000
      4     -13.3315      1.00000
      5      -6.3970      1.00000
      6      -6.3926      1.00000
      7      -6.1860      1.00000
      8      -6.1748      1.00000
      9      -4.9261      1.00000
     10      -4.9162      1.00000
     11      -4.6154      1.00000
     12      -4.5950      1.00000
     13      -4.2444      1.00000
     14      -4.2033      1.00000
     15      -3.0817      1.00000
     16      -3.0722      1.00000
     17      -1.8801      1.00000
     18      -1.7695      1.00000
     19       0.7522      0.00000
     20       0.7534      0.00000
     21       1.3842      0.00000
     22       1.4890      0.00000
     23       1.6068      0.00000
     24       1.6187      0.00000
     25       3.1067      0.00000
     26       3.1466      0.00000

 k-point    83 :      -0.1667    0.5000    0.0000
  band No.  band energies     occupation 
      1     -13.5620      1.00000
      2     -13.5428      1.00000
      3     -13.3380      1.00000
      4     -13.3357      1.00000
      5      -6.6028      1.00000
      6      -6.5939      1.00000
      7      -6.1837      1.00000
      8      -6.1748      1.00000
      9      -5.1437      1.00000
     10      -5.1424      1.00000
     11      -4.5491      1.00000
     12      -4.5322      1.00000
     13      -3.6921      1.00000
     14      -3.6429      1.00000
     15      -3.1605      1.00000
     16      -3.1498      1.00000
     17      -1.8581      1.00000
     18      -1.7513      1.00000
     19       0.7960      0.00000
     20       0.8118      0.00000
     21       1.3522      0.00000
     22       1.4594      0.00000
     23       1.8555      0.00000
     24       1.8621      0.00000
     25       2.9602      0.00000
     26       2.9915      0.00000

 k-point    84 :      -0.0833    0.5000    0.0000
  band No.  band energies     occupation 
      1     -13.5411      1.00000
      2     -13.5299      1.00000
      3     -13.3454      1.00000
      4     -13.3441      1.00000
      5      -6.9367      1.00000
      6      -6.9287      1.00000
      7      -6.1745      1.00000
      8      -6.1701      1.00000
      9      -5.3231      1.00000
     10      -5.3200      1.00000
     11      -4.4304      1.00000
     12      -4.4232      1.00000
     13      -3.2922      1.00000
     14      -3.2850      1.00000
     15      -2.8177      1.00000
     16      -2.7589      1.00000
     17      -1.8733      1.00000
     18      -1.7787      1.00000
     19       0.8595      0.00000
     20       0.8950      0.00000
     21       1.3101      0.00000
     22       1.4031      0.00000
     23       2.3838      0.00000
     24       2.3991      0.00000
     25       2.6922      0.00000
     26       2.6955      0.00000

 k-point    85 :       0.0000   -0.4167    0.0000
  band No.  band energies     occupation 
      1     -13.6900      1.00000
      2     -13.6900      1.00000
      3     -13.4236      1.00000
      4     -13.4236      1.00000
      5      -6.8951      1.00000
      6      -6.8951      1.00000
      7      -5.9884      1.00000
      8      -5.9884      1.00000
      9      -5.3121      1.00000
     10      -5.3121      1.00000
     11      -4.2978      1.00000
     12      -4.2978      1.00000
     13      -3.2739      1.00000
     14      -3.2739      1.00000
     15      -2.3011      1.00000
     16      -2.3011      1.00000
     17      -2.1695      1.00000
     18      -2.1695      1.00000
     19       0.8382      0.00000
     20       0.8382      0.00000
     21       1.1777      0.00000
     22       1.1777      0.00000
     23       2.3458      0.00000
     24       2.3458      0.00000
     25       2.7498      0.00000
     26       2.7498      0.00000

 k-point    86 :       0.0833   -0.4167    0.0000
  band No.  band energies     occupation 
      1     -13.5411      1.00000
      2     -13.5299      1.00000
      3     -13.3454      1.00000
      4     -13.3441      1.00000
      5      -6.9367      1.00000
      6      -6.9287      1.00000
      7      -6.1745      1.00000
      8      -6.1701      1.00000
      9      -5.3231      1.00000
     10      -5.3200      1.00000
     11      -4.4304      1.00000
     12      -4.4232      1.00000
     13      -3.2922      1.00000
     14      -3.2850      1.00000
     15      -2.8177      1.00000
     16      -2.7589      1.00000
     17      -1.8733      1.00000
     18      -1.7787      1.00000
     19       0.8595      0.00000
     20       0.8950      0.00000
     21       1.3101      0.00000
     22       1.4031      0.00000
     23       2.3838      0.00000
     24       2.3991      0.00000
     25       2.6922      0.00000
     26       2.6955      0.00000

 k-point    87 :       0.1667   -0.4167    0.0000
  band No.  band energies     occupation 
      1     -13.4210      1.00000
      2     -13.3993      1.00000
      3     -13.2681      1.00000
      4     -13.2656      1.00000
      5      -6.6980      1.00000
      6      -6.6798      1.00000
      7      -6.3818      1.00000
      8      -6.3749      1.00000
      9      -5.2586      1.00000
     10      -5.2537      1.00000
     11      -4.4761      1.00000
     12      -4.4580      1.00000
     13      -3.6937      1.00000
     14      -3.6475      1.00000
     15      -3.3406      1.00000
     16      -3.3354      1.00000
     17      -1.6910      1.00000
     18      -1.5785      1.00000
     19       0.7648      0.00000
     20       0.8093      0.00000
     21       1.5442      0.00000
     22       1.6911      0.00000
     23       1.9692      0.00000
     24       1.9943      0.00000
     25       2.9471      0.00000
     26       2.9994      0.00000

 k-point    88 :       0.2500   -0.4167    0.0000
  band No.  band energies     occupation 
      1     -13.3567      1.00000
      2     -13.3286      1.00000
      3     -13.2187      1.00000
      4     -13.2155      1.00000
      5      -6.5296      1.00000
      6      -6.5217      1.00000
      7      -6.3039      1.00000
      8      -6.2815      1.00000
      9      -5.1311      1.00000
     10      -5.1221      1.00000
     11      -4.5537      1.00000
     12      -4.5209      1.00000
     13      -4.4365      1.00000
     14      -4.3989      1.00000
     15      -3.4176      1.00000
     16      -3.4121      1.00000
     17      -1.5905      1.00000
     18      -1.4626      1.00000
     19       0.5880      0.00000
     20       0.6064      0.00000
     21       1.6068      0.00000
     22       1.6206      0.00000
     23       1.7828      0.00000
     24       1.9109      0.00000
     25       3.2479      0.00000
     26       3.3177      0.00000

 k-point    89 :       0.3333   -0.4167    0.0000
  band No.  band energies     occupation 
      1     -13.3567      1.00000
      2     -13.3286      1.00000
      3     -13.2187      1.00000
      4     -13.2155      1.00000
      5      -6.5296      1.00000
      6      -6.5217      1.00000
      7      -6.3039      1.00000
      8      -6.2815      1.00000
      9      -5.1311      1.00000
     10      -5.1221      1.00000
     11      -4.5537      1.00000
     12      -4.5209      1.00000
     13      -4.4365      1.00000
     14      -4.3989      1.00000
     15      -3.4176      1.00000
     16      -3.4121      1.00000
     17      -1.5905      1.00000
     18      -1.4626      1.00000
     19       0.5880      0.00000
     20       0.6064      0.00000
     21       1.6068      0.00000
     22       1.6206      0.00000
     23       1.7828      0.00000
     24       1.9109      0.00000
     25       3.2479      0.00000
     26       3.3177      0.00000

 k-point    90 :       0.4167   -0.4167    0.0000
  band No.  band energies     occupation 
      1     -13.4210      1.00000
      2     -13.3993      1.00000
      3     -13.2681      1.00000
      4     -13.2656      1.00000
      5      -6.6980      1.00000
      6      -6.6798      1.00000
      7      -6.3818      1.00000
      8      -6.3749      1.00000
      9      -5.2586      1.00000
     10      -5.2537      1.00000
     11      -4.4761      1.00000
     12      -4.4580      1.00000
     13      -3.6937      1.00000
     14      -3.6475      1.00000
     15      -3.3406      1.00000
     16      -3.3354      1.00000
     17      -1.6910      1.00000
     18      -1.5785      1.00000
     19       0.7648      0.00000
     20       0.8093      0.00000
     21       1.5442      0.00000
     22       1.6911      0.00000
     23       1.9692      0.00000
     24       1.9943      0.00000
     25       2.9471      0.00000
     26       2.9994      0.00000

 k-point    91 :       0.5000   -0.4167    0.0000
  band No.  band energies     occupation 
      1     -13.5411      1.00000
      2     -13.5299      1.00000
      3     -13.3454      1.00000
      4     -13.3441      1.00000
      5      -6.9367      1.00000
      6      -6.9287      1.00000
      7      -6.1745      1.00000
      8      -6.1701      1.00000
      9      -5.3231      1.00000
     10      -5.3200      1.00000
     11      -4.4304      1.00000
     12      -4.4232      1.00000
     13      -3.2922      1.00000
     14      -3.2850      1.00000
     15      -2.8177      1.00000
     16      -2.7589      1.00000
     17      -1.8733      1.00000
     18      -1.7787      1.00000
     19       0.8595      0.00000
     20       0.8950      0.00000
     21       1.3101      0.00000
     22       1.4031      0.00000
     23       2.3838      0.00000
     24       2.3991      0.00000
     25       2.6922      0.00000
     26       2.6956      0.00000

 k-point    92 :      -0.4167   -0.4167    0.0000
  band No.  band energies     occupation 
      1     -13.6900      1.00000
      2     -13.6900      1.00000
      3     -13.4236      1.00000
      4     -13.4236      1.00000
      5      -6.8951      1.00000
      6      -6.8951      1.00000
      7      -5.9884      1.00000
      8      -5.9884      1.00000
      9      -5.3121      1.00000
     10      -5.3121      1.00000
     11      -4.2978      1.00000
     12      -4.2978      1.00000
     13      -3.2739      1.00000
     14      -3.2739      1.00000
     15      -2.3011      1.00000
     16      -2.3011      1.00000
     17      -2.1695      1.00000
     18      -2.1695      1.00000
     19       0.8382      0.00000
     20       0.8382      0.00000
     21       1.1777      0.00000
     22       1.1777      0.00000
     23       2.3458      0.00000
     24       2.3458      0.00000
     25       2.7498      0.00000
     26       2.7498      0.00000

 k-point    93 :      -0.3333   -0.4167    0.0000
  band No.  band energies     occupation 
      1     -13.8334      1.00000
      2     -13.8247      1.00000
      3     -13.4842      1.00000
      4     -13.4831      1.00000
      5      -6.6379      1.00000
      6      -6.6377      1.00000
      7      -5.8126      1.00000
      8      -5.8063      1.00000
      9      -5.2078      1.00000
     10      -5.2059      1.00000
     11      -4.3788      1.00000
     12      -4.3717      1.00000
     13      -3.0801      1.00000
     14      -3.0753      1.00000
     15      -2.9273      1.00000
     16      -2.8748      1.00000
     17      -2.1027      1.00000
     18      -2.0149      1.00000
     19       0.7228      0.00000
     20       0.7602      0.00000
     21       1.1252      0.00000
     22       1.1362      0.00000
     23       2.0029      0.00000
     24       2.0347      0.00000
     25       2.7555      0.00000
     26       2.7756      0.00000

 k-point    94 :      -0.2500   -0.4167    0.0000
  band No.  band energies     occupation 
      1     -13.9172      1.00000
      2     -13.9039      1.00000
      3     -13.5160      1.00000
      4     -13.5143      1.00000
      5      -6.3708      1.00000
      6      -6.3631      1.00000
      7      -5.6419      1.00000
      8      -5.6268      1.00000
      9      -5.0437      1.00000
     10      -5.0341      1.00000
     11      -4.6283      1.00000
     12      -4.6095      1.00000
     13      -3.5592      1.00000
     14      -3.5002      1.00000
     15      -2.7867      1.00000
     16      -2.7652      1.00000
     17      -2.1033      1.00000
     18      -2.0061      1.00000
     19       0.5667      0.00000
     20       0.6336      0.00000
     21       1.1812      0.00000
     22       1.1886      0.00000
     23       1.5506      0.00000
     24       1.5798      0.00000
     25       2.9065      0.00000
     26       2.9142      0.00000

 k-point    95 :      -0.1667   -0.4167    0.0000
  band No.  band energies     occupation 
      1     -13.9172      1.00000
      2     -13.9039      1.00000
      3     -13.5160      1.00000
      4     -13.5143      1.00000
      5      -6.3708      1.00000
      6      -6.3631      1.00000
      7      -5.6419      1.00000
      8      -5.6268      1.00000
      9      -5.0437      1.00000
     10      -5.0341      1.00000
     11      -4.6283      1.00000
     12      -4.6095      1.00000
     13      -3.5592      1.00000
     14      -3.5002      1.00000
     15      -2.7867      1.00000
     16      -2.7652      1.00000
     17      -2.1033      1.00000
     18      -2.0061      1.00000
     19       0.5667      0.00000
     20       0.6336      0.00000
     21       1.1812      0.00000
     22       1.1886      0.00000
     23       1.5506      0.00000
     24       1.5798      0.00000
     25       2.9065      0.00000
     26       2.9142      0.00000

 k-point    96 :      -0.0833   -0.4167    0.0000
  band No.  band energies     occupation 
      1     -13.8334      1.00000
      2     -13.8247      1.00000
      3     -13.4842      1.00000
      4     -13.4831      1.00000
      5      -6.6379      1.00000
      6      -6.6377      1.00000
      7      -5.8126      1.00000
      8      -5.8063      1.00000
      9      -5.2078      1.00000
     10      -5.2059      1.00000
     11      -4.3788      1.00000
     12      -4.3717      1.00000
     13      -3.0801      1.00000
     14      -3.0753      1.00000
     15      -2.9273      1.00000
     16      -2.8748      1.00000
     17      -2.1027      1.00000
     18      -2.0149      1.00000
     19       0.7228      0.00000
     20       0.7602      0.00000
     21       1.1252      0.00000
     22       1.1362      0.00000
     23       2.0029      0.00000
     24       2.0347      0.00000
     25       2.7555      0.00000
     26       2.7756      0.00000

 k-point    97 :       0.0000   -0.3333    0.0000
  band No.  band energies     occupation 
      1     -14.0932      1.00000
      2     -14.0932      1.00000
      3     -13.6150      1.00000
      4     -13.6150      1.00000
      5      -6.4815      1.00000
      6      -6.4815      1.00000
      7      -5.5134      1.00000
      8      -5.5134      1.00000
      9      -5.2190      1.00000
     10      -5.2190      1.00000
     11      -4.0596      1.00000
     12      -4.0596      1.00000
     13      -3.0791      1.00000
     14      -3.0791      1.00000
     15      -2.5664      1.00000
     16      -2.5664      1.00000
     17      -2.3515      1.00000
     18      -2.3515      1.00000
     19       0.7974      0.00000
     20       0.7974      0.00000
     21       0.8857      0.00000
     22       0.8857      0.00000
     23       1.9758      0.00000
     24       1.9758      0.00000
     25       2.6070      0.00000
     26       2.6070      0.00000

 k-point    98 :       0.0833   -0.3333    0.0000
  band No.  band energies     occupation 
      1     -13.8334      1.00000
      2     -13.8247      1.00000
      3     -13.4842      1.00000
      4     -13.4831      1.00000
      5      -6.6379      1.00000
      6      -6.6377      1.00000
      7      -5.8126      1.00000
      8      -5.8063      1.00000
      9      -5.2078      1.00000
     10      -5.2059      1.00000
     11      -4.3788      1.00000
     12      -4.3717      1.00000
     13      -3.0801      1.00000
     14      -3.0753      1.00000
     15      -2.9273      1.00000
     16      -2.8748      1.00000
     17      -2.1027      1.00000
     18      -2.0149      1.00000
     19       0.7228      0.00000
     20       0.7602      0.00000
     21       1.1252      0.00000
     22       1.1362      0.00000
     23       2.0029      0.00000
     24       2.0347      0.00000
     25       2.7555      0.00000
     26       2.7756      0.00000

 k-point    99 :       0.1667   -0.3333    0.0000
  band No.  band energies     occupation 
      1     -13.5620      1.00000
      2     -13.5428      1.00000
      3     -13.3380      1.00000
      4     -13.3357      1.00000
      5      -6.6028      1.00000
      6      -6.5939      1.00000
      7      -6.1837      1.00000
      8      -6.1749      1.00000
      9      -5.1437      1.00000
     10      -5.1424      1.00000
     11      -4.5491      1.00000
     12      -4.5322      1.00000
     13      -3.6921      1.00000
     14      -3.6429      1.00000
     15      -3.1605      1.00000
     16      -3.1498      1.00000
     17      -1.8581      1.00000
     18      -1.7513      1.00000
     19       0.7960      0.00000
     20       0.8118      0.00000
     21       1.3522      0.00000
     22       1.4594      0.00000
     23       1.8555      0.00000
     24       1.8621      0.00000
     25       2.9602      0.00000
     26       2.9916      0.00000

 k-point   100 :       0.2500   -0.3333    0.0000
  band No.  band energies     occupation 
      1     -13.3567      1.00000
      2     -13.3287      1.00000
      3     -13.2187      1.00000
      4     -13.2155      1.00000
      5      -6.5296      1.00000
      6      -6.5217      1.00000
      7      -6.3039      1.00000
      8      -6.2815      1.00000
      9      -5.1311      1.00000
     10      -5.1221      1.00000
     11      -4.5537      1.00000
     12      -4.5209      1.00000
     13      -4.4365      1.00000
     14      -4.3989      1.00000
     15      -3.4176      1.00000
     16      -3.4121      1.00000
     17      -1.5905      1.00000
     18      -1.4626      1.00000
     19       0.5880      0.00000
     20       0.6064      0.00000
     21       1.6068      0.00000
     22       1.6206      0.00000
     23       1.7828      0.00000
     24       1.9109      0.00000
     25       3.2479      0.00000
     26       3.3177      0.00000

 k-point   101 :       0.3333   -0.3333    0.0000
  band No.  band energies     occupation 
      1     -13.2804      1.00000
      2     -13.2488      1.00000
      3     -13.1719      1.00000
      4     -13.1685      1.00000
      5      -6.6676      1.00000
      6      -6.6605      1.00000
      7      -5.9228      1.00000
      8      -5.8875      1.00000
      9      -5.4023      1.00000
     10      -5.3710      1.00000
     11      -4.8749      1.00000
     12      -4.8676      1.00000
     13      -4.3051      1.00000
     14      -4.2559      1.00000
     15      -3.6138      1.00000
     16      -3.5900      1.00000
     17      -1.4220      1.00000
     18      -1.2749      1.00000
     19       0.3987      0.00000
     20       0.4009      0.00000
     21       1.4997      0.00000
     22       1.5303      0.00000
     23       1.9952      0.00000
     24       2.1382      0.00000
     25       3.3936      0.00000
     26       3.4746      0.00000

 k-point   102 :       0.4167   -0.3333    0.0000
  band No.  band energies     occupation 
      1     -13.3567      1.00000
      2     -13.3286      1.00000
      3     -13.2187      1.00000
      4     -13.2155      1.00000
      5      -6.5296      1.00000
      6      -6.5217      1.00000
      7      -6.3039      1.00000
      8      -6.2815      1.00000
      9      -5.1311      1.00000
     10      -5.1221      1.00000
     11      -4.5537      1.00000
     12      -4.5209      1.00000
     13      -4.4365      1.00000
     14      -4.3989      1.00000
     15      -3.4176      1.00000
     16      -3.4121      1.00000
     17      -1.5905      1.00000
     18      -1.4626      1.00000
     19       0.5880      0.00000
     20       0.6064      0.00000
     21       1.6068      0.00000
     22       1.6206      0.00000
     23       1.7828      0.00000
     24       1.9109      0.00000
     25       3.2479      0.00000
     26       3.3177      0.00000

 k-point   103 :       0.5000   -0.3333    0.0000
  band No.  band energies     occupation 
      1     -13.5620      1.00000
      2     -13.5428      1.00000
      3     -13.3380      1.00000
      4     -13.3357      1.00000
      5      -6.6028      1.00000
      6      -6.5939      1.00000
      7      -6.1837      1.00000
      8      -6.1748      1.00000
      9      -5.1437      1.00000
     10      -5.1424      1.00000
     11      -4.5491      1.00000
     12      -4.5322      1.00000
     13      -3.6921      1.00000
     14      -3.6429      1.00000
     15      -3.1606      1.00000
     16      -3.1498      1.00000
     17      -1.8581      1.00000
     18      -1.7513      1.00000
     19       0.7960      0.00000
     20       0.8118      0.00000
     21       1.3522      0.00000
     22       1.4594      0.00000
     23       1.8555      0.00000
     24       1.8621      0.00000
     25       2.9602      0.00000
     26       2.9916      0.00000

 k-point   104 :      -0.4167   -0.3333    0.0000
  band No.  band energies     occupation 
      1     -13.8334      1.00000
      2     -13.8247      1.00000
      3     -13.4842      1.00000
      4     -13.4831      1.00000
      5      -6.6379      1.00000
      6      -6.6377      1.00000
      7      -5.8126      1.00000
      8      -5.8063      1.00000
      9      -5.2078      1.00000
     10      -5.2059      1.00000
     11      -4.3788      1.00000
     12      -4.3717      1.00000
     13      -3.0801      1.00000
     14      -3.0753      1.00000
     15      -2.9273      1.00000
     16      -2.8748      1.00000
     17      -2.1027      1.00000
     18      -2.0149      1.00000
     19       0.7228      0.00000
     20       0.7602      0.00000
     21       1.1252      0.00000
     22       1.1362      0.00000
     23       2.0029      0.00000
     24       2.0347      0.00000
     25       2.7555      0.00000
     26       2.7756      0.00000

 k-point   105 :      -0.3333   -0.3333    0.0000
  band No.  band energies     occupation 
      1     -14.0932      1.00000
      2     -14.0932      1.00000
      3     -13.6150      1.00000
      4     -13.6150      1.00000
      5      -6.4815      1.00000
      6      -6.4815      1.00000
      7      -5.5134      1.00000
      8      -5.5134      1.00000
      9      -5.2190      1.00000
     10      -5.2190      1.00000
     11      -4.0596      1.00000
     12      -4.0596      1.00000
     13      -3.0791      1.00000
     14      -3.0791      1.00000
     15      -2.5664      1.00000
     16      -2.5664      1.00000
     17      -2.3515      1.00000
     18      -2.3515      1.00000
     19       0.7974      0.00000
     20       0.7974      0.00000
     21       0.8857      0.00000
     22       0.8857      0.00000
     23       1.9758      0.00000
     24       1.9758      0.00000
     25       2.6070      0.00000
     26       2.6070      0.00000

 k-point   106 :      -0.2500   -0.3333    0.0000
  band No.  band energies     occupation 
      1     -14.2812      1.00000
      2     -14.2758      1.00000
      3     -13.7035      1.00000
      4     -13.7028      1.00000
      5      -6.2712      1.00000
      6      -6.2628      1.00000
      7      -5.2060      1.00000
      8      -5.1974      1.00000
      9      -5.1552      1.00000
     10      -5.1503      1.00000
     11      -4.2096      1.00000
     12      -4.2029      1.00000
     13      -3.0192      1.00000
     14      -2.9554      1.00000
     15      -2.7346      1.00000
     16      -2.7090      1.00000
     17      -2.2431      1.00000
     18      -2.1726      1.00000
     19       0.5396      0.00000
     20       0.5965      0.00000
     21       0.9919      0.00000
     22       1.0127      0.00000
     23       1.5335      0.00000
     24       1.5823      0.00000
     25       2.6142      0.00000
     26       2.6497      0.00000

 k-point   107 :      -0.1667   -0.3333    0.0000
  band No.  band energies     occupation 
      1     -14.3482      1.00000
      2     -14.3410      1.00000
      3     -13.7344      1.00000
      4     -13.7334      1.00000
      5      -6.1730      1.00000
      6      -6.1586      1.00000
      7      -5.1086      1.00000
      8      -5.1033      1.00000
      9      -4.9493      1.00000
     10      -4.9205      1.00000
     11      -4.5021      1.00000
     12      -4.4755      1.00000
     13      -3.2478      1.00000
     14      -3.1791      1.00000
     15      -2.4766      1.00000
     16      -2.4417      1.00000
     17      -2.1854      1.00000
     18      -2.1084      1.00000
     19       0.4174      0.00000
     20       0.4825      0.00000
     21       1.0502      0.00000
     22       1.0634      0.00000
     23       1.2465      0.00000
     24       1.3039      0.00000
     25       2.6720      0.00000
     26       2.7095      0.00000

 k-point   108 :      -0.0833   -0.3333    0.0000
  band No.  band energies     occupation 
      1     -14.2812      1.00000
      2     -14.2758      1.00000
      3     -13.7035      1.00000
      4     -13.7028      1.00000
      5      -6.2712      1.00000
      6      -6.2628      1.00000
      7      -5.2060      1.00000
      8      -5.1974      1.00000
      9      -5.1552      1.00000
     10      -5.1503      1.00000
     11      -4.2096      1.00000
     12      -4.2029      1.00000
     13      -3.0192      1.00000
     14      -2.9554      1.00000
     15      -2.7346      1.00000
     16      -2.7090      1.00000
     17      -2.2431      1.00000
     18      -2.1726      1.00000
     19       0.5396      0.00000
     20       0.5965      0.00000
     21       0.9919      0.00000
     22       1.0127      0.00000
     23       1.5335      0.00000
     24       1.5823      0.00000
     25       2.6142      0.00000
     26       2.6497      0.00000

 k-point   109 :       0.0000   -0.2500    0.0000
  band No.  band energies     occupation 
      1     -14.5718      1.00000
      2     -14.5718      1.00000
      3     -13.8506      1.00000
      4     -13.8506      1.00000
      5      -6.2405      1.00000
      6      -6.2405      1.00000
      7      -5.0791      1.00000
      8      -5.0791      1.00000
      9      -4.8784      1.00000
     10      -4.8784      1.00000
     11      -3.6928      1.00000
     12      -3.6928      1.00000
     13      -2.9715      1.00000
     14      -2.9715      1.00000
     15      -2.7546      1.00000
     16      -2.7546      1.00000
     17      -2.1463      1.00000
     18      -2.1463      1.00000
     19       0.6721      0.00000
     20       0.6721      0.00000
     21       0.9479      0.00000
     22       0.9479      0.00000
     23       1.4997      0.00000
     24       1.4997      0.00000
     25       2.3400      0.00000
     26       2.3400      0.00000

 k-point   110 :       0.0833   -0.2500    0.0000
  band No.  band energies     occupation 
      1     -14.2812      1.00000
      2     -14.2758      1.00000
      3     -13.7035      1.00000
      4     -13.7028      1.00000
      5      -6.2712      1.00000
      6      -6.2628      1.00000
      7      -5.2060      1.00000
      8      -5.1974      1.00000
      9      -5.1552      1.00000
     10      -5.1503      1.00000
     11      -4.2096      1.00000
     12      -4.2029      1.00000
     13      -3.0192      1.00000
     14      -2.9554      1.00000
     15      -2.7346      1.00000
     16      -2.7090      1.00000
     17      -2.2431      1.00000
     18      -2.1726      1.00000
     19       0.5396      0.00000
     20       0.5965      0.00000
     21       0.9919      0.00000
     22       1.0127      0.00000
     23       1.5335      0.00000
     24       1.5823      0.00000
     25       2.6143      0.00000
     26       2.6497      0.00000

 k-point   111 :       0.1667   -0.2500    0.0000
  band No.  band energies     occupation 
      1     -13.9172      1.00000
      2     -13.9039      1.00000
      3     -13.5160      1.00000
      4     -13.5143      1.00000
      5      -6.3708      1.00000
      6      -6.3631      1.00000
      7      -5.6419      1.00000
      8      -5.6268      1.00000
      9      -5.0437      1.00000
     10      -5.0341      1.00000
     11      -4.6283      1.00000
     12      -4.6095      1.00000
     13      -3.5592      1.00000
     14      -3.5002      1.00000
     15      -2.7867      1.00000
     16      -2.7652      1.00000
     17      -2.1033      1.00000
     18      -2.0061      1.00000
     19       0.5667      0.00000
     20       0.6336      0.00000
     21       1.1812      0.00000
     22       1.1886      0.00000
     23       1.5506      0.00000
     24       1.5797      0.00000
     25       2.9065      0.00000
     26       2.9142      0.00000

 k-point   112 :       0.2500   -0.2500    0.0000
  band No.  band energies     occupation 
      1     -13.5717      1.00000
      2     -13.5498      1.00000
      3     -13.3342      1.00000
      4     -13.3315      1.00000
      5      -6.3970      1.00000
      6      -6.3926      1.00000
      7      -6.1860      1.00000
      8      -6.1748      1.00000
      9      -4.9261      1.00000
     10      -4.9162      1.00000
     11      -4.6154      1.00000
     12      -4.5950      1.00000
     13      -4.2444      1.00000
     14      -4.2033      1.00000
     15      -3.0817      1.00000
     16      -3.0722      1.00000
     17      -1.8801      1.00000
     18      -1.7695      1.00000
     19       0.7522      0.00000
     20       0.7534      0.00000
     21       1.3842      0.00000
     22       1.4890      0.00000
     23       1.6068      0.00000
     24       1.6187      0.00000
     25       3.1068      0.00000
     26       3.1466      0.00000

 k-point   113 :       0.3333   -0.2500    0.0000
  band No.  band energies     occupation 
      1     -13.3567      1.00000
      2     -13.3287      1.00000
      3     -13.2187      1.00000
      4     -13.2155      1.00000
      5      -6.5296      1.00000
      6      -6.5217      1.00000
      7      -6.3039      1.00000
      8      -6.2815      1.00000
      9      -5.1311      1.00000
     10      -5.1221      1.00000
     11      -4.5537      1.00000
     12      -4.5209      1.00000
     13      -4.4365      1.00000
     14      -4.3989      1.00000
     15      -3.4176      1.00000
     16      -3.4121      1.00000
     17      -1.5905      1.00000
     18      -1.4626      1.00000
     19       0.5880      0.00000
     20       0.6064      0.00000
     21       1.6068      0.00000
     22       1.6206      0.00000
     23       1.7828      0.00000
     24       1.9109      0.00000
     25       3.2479      0.00000
     26       3.3177      0.00000

 k-point   114 :       0.4167   -0.2500    0.0000
  band No.  band energies     occupation 
      1     -13.3567      1.00000
      2     -13.3286      1.00000
      3     -13.2187      1.00000
      4     -13.2155      1.00000
      5      -6.5296      1.00000
      6      -6.5217      1.00000
      7      -6.3039      1.00000
      8      -6.2815      1.00000
      9      -5.1311      1.00000
     10      -5.1221      1.00000
     11      -4.5537      1.00000
     12      -4.5209      1.00000
     13      -4.4365      1.00000
     14      -4.3989      1.00000
     15      -3.4176      1.00000
     16      -3.4121      1.00000
     17      -1.5905      1.00000
     18      -1.4626      1.00000
     19       0.5880      0.00000
     20       0.6064      0.00000
     21       1.6068      0.00000
     22       1.6206      0.00000
     23       1.7828      0.00000
     24       1.9109      0.00000
     25       3.2479      0.00000
     26       3.3177      0.00000

 k-point   115 :       0.5000   -0.2500    0.0000
  band No.  band energies     occupation 
      1     -13.5717      1.00000
      2     -13.5498      1.00000
      3     -13.3342      1.00000
      4     -13.3315      1.00000
      5      -6.3970      1.00000
      6      -6.3926      1.00000
      7      -6.1860      1.00000
      8      -6.1748      1.00000
      9      -4.9261      1.00000
     10      -4.9162      1.00000
     11      -4.6154      1.00000
     12      -4.5950      1.00000
     13      -4.2444      1.00000
     14      -4.2033      1.00000
     15      -3.0817      1.00000
     16      -3.0722      1.00000
     17      -1.8801      1.00000
     18      -1.7695      1.00000
     19       0.7522      0.00000
     20       0.7534      0.00000
     21       1.3842      0.00000
     22       1.4890      0.00000
     23       1.6068      0.00000
     24       1.6187      0.00000
     25       3.1068      0.00000
     26       3.1466      0.00000

 k-point   116 :      -0.4167   -0.2500    0.0000
  band No.  band energies     occupation 
      1     -13.9172      1.00000
      2     -13.9039      1.00000
      3     -13.5160      1.00000
      4     -13.5143      1.00000
      5      -6.3708      1.00000
      6      -6.3631      1.00000
      7      -5.6419      1.00000
      8      -5.6268      1.00000
      9      -5.0437      1.00000
     10      -5.0341      1.00000
     11      -4.6283      1.00000
     12      -4.6095      1.00000
     13      -3.5592      1.00000
     14      -3.5002      1.00000
     15      -2.7867      1.00000
     16      -2.7652      1.00000
     17      -2.1033      1.00000
     18      -2.0061      1.00000
     19       0.5667      0.00000
     20       0.6336      0.00000
     21       1.1812      0.00000
     22       1.1886      0.00000
     23       1.5506      0.00000
     24       1.5798      0.00000
     25       2.9065      0.00000
     26       2.9142      0.00000

 k-point   117 :      -0.3333   -0.2500    0.0000
  band No.  band energies     occupation 
      1     -14.2812      1.00000
      2     -14.2758      1.00000
      3     -13.7035      1.00000
      4     -13.7028      1.00000
      5      -6.2712      1.00000
      6      -6.2628      1.00000
      7      -5.2060      1.00000
      8      -5.1974      1.00000
      9      -5.1552      1.00000
     10      -5.1503      1.00000
     11      -4.2096      1.00000
     12      -4.2029      1.00000
     13      -3.0192      1.00000
     14      -2.9554      1.00000
     15      -2.7346      1.00000
     16      -2.7090      1.00000
     17      -2.2431      1.00000
     18      -2.1726      1.00000
     19       0.5396      0.00000
     20       0.5965      0.00000
     21       0.9919      0.00000
     22       1.0127      0.00000
     23       1.5335      0.00000
     24       1.5823      0.00000
     25       2.6142      0.00000
     26       2.6497      0.00000

 k-point   118 :      -0.2500   -0.2500    0.0000
  band No.  band energies     occupation 
      1     -14.5718      1.00000
      2     -14.5718      1.00000
      3     -13.8506      1.00000
      4     -13.8506      1.00000
      5      -6.2405      1.00000
      6      -6.2405      1.00000
      7      -5.0791      1.00000
      8      -5.0791      1.00000
      9      -4.8784      1.00000
     10      -4.8784      1.00000
     11      -3.6928      1.00000
     12      -3.6928      1.00000
     13      -2.9715      1.00000
     14      -2.9715      1.00000
     15      -2.7546      1.00000
     16      -2.7546      1.00000
     17      -2.1463      1.00000
     18      -2.1463      1.00000
     19       0.6721      0.00000
     20       0.6721      0.00000
     21       0.9479      0.00000
     22       0.9479      0.00000
     23       1.4997      0.00000
     24       1.4997      0.00000
     25       2.3400      0.00000
     26       2.3400      0.00000

 k-point   119 :      -0.1667   -0.2500    0.0000
  band No.  band energies     occupation 
      1     -14.7335      1.00000
      2     -14.7308      1.00000
      3     -13.9306      1.00000
      4     -13.9302      1.00000
      5      -6.2709      1.00000
      6      -6.2654      1.00000
      7      -4.9162      1.00000
      8      -4.9113      1.00000
      9      -4.5463      1.00000
     10      -4.5381      1.00000
     11      -3.8266      1.00000
     12      -3.8254      1.00000
     13      -3.2041      1.00000
     14      -3.1675      1.00000
     15      -2.4215      1.00000
     16      -2.3899      1.00000
     17      -1.9974      1.00000
     18      -1.9697      1.00000
     19       0.6024      0.00000
     20       0.6249      0.00000
     21       1.0356      0.00000
     22       1.0419      0.00000
     23       1.1532      0.00000
     24       1.2200      0.00000
     25       2.2883      0.00000
     26       2.3343      0.00000

 k-point   120 :      -0.0833   -0.2500    0.0000
  band No.  band energies     occupation 
      1     -14.7335      1.00000
      2     -14.7308      1.00000
      3     -13.9306      1.00000
      4     -13.9302      1.00000
      5      -6.2709      1.00000
      6      -6.2654      1.00000
      7      -4.9162      1.00000
      8      -4.9113      1.00000
      9      -4.5463      1.00000
     10      -4.5381      1.00000
     11      -3.8266      1.00000
     12      -3.8254      1.00000
     13      -3.2041      1.00000
     14      -3.1675      1.00000
     15      -2.4215      1.00000
     16      -2.3899      1.00000
     17      -1.9974      1.00000
     18      -1.9697      1.00000
     19       0.6024      0.00000
     20       0.6249      0.00000
     21       1.0356      0.00000
     22       1.0419      0.00000
     23       1.1532      0.00000
     24       1.2200      0.00000
     25       2.2883      0.00000
     26       2.3343      0.00000

 k-point   121 :       0.0000   -0.1667    0.0000
  band No.  band energies     occupation 
      1     -14.9932      1.00000
      2     -14.9932      1.00000
      3     -14.0631      1.00000
      4     -14.0631      1.00000
      5      -6.4818      1.00000
      6      -6.4818      1.00000
      7      -4.5684      1.00000
      8      -4.5684      1.00000
      9      -4.2230      1.00000
     10      -4.2230      1.00000
     11      -3.3840      1.00000
     12      -3.3840      1.00000
     13      -3.2531      1.00000
     14      -3.2531      1.00000
     15      -2.4710      1.00000
     16      -2.4710      1.00000
     17      -1.7683      1.00000
     18      -1.7683      1.00000
     19       0.8154      0.00000
     20       0.8154      0.00000
     21       1.1776      0.00000
     22       1.1776      0.00000
     23       1.2194      0.00000
     24       1.2194      0.00000
     25       1.9635      0.00000
     26       1.9636      0.00000

 k-point   122 :       0.0833   -0.1667    0.0000
  band No.  band energies     occupation 
      1     -14.7335      1.00000
      2     -14.7308      1.00000
      3     -13.9306      1.00000
      4     -13.9302      1.00000
      5      -6.2709      1.00000
      6      -6.2654      1.00000
      7      -4.9162      1.00000
      8      -4.9113      1.00000
      9      -4.5463      1.00000
     10      -4.5381      1.00000
     11      -3.8266      1.00000
     12      -3.8254      1.00000
     13      -3.2041      1.00000
     14      -3.1675      1.00000
     15      -2.4215      1.00000
     16      -2.3899      1.00000
     17      -1.9974      1.00000
     18      -1.9697      1.00000
     19       0.6024      0.00000
     20       0.6249      0.00000
     21       1.0356      0.00000
     22       1.0419      0.00000
     23       1.1532      0.00000
     24       1.2200      0.00000
     25       2.2883      0.00000
     26       2.3343      0.00000

 k-point   123 :       0.1667   -0.1667    0.0000
  band No.  band energies     occupation 
      1     -14.3482      1.00000
      2     -14.3410      1.00000
      3     -13.7344      1.00000
      4     -13.7334      1.00000
      5      -6.1730      1.00000
      6      -6.1586      1.00000
      7      -5.1086      1.00000
      8      -5.1033      1.00000
      9      -4.9494      1.00000
     10      -4.9205      1.00000
     11      -4.5021      1.00000
     12      -4.4755      1.00000
     13      -3.2478      1.00000
     14      -3.1791      1.00000
     15      -2.4766      1.00000
     16      -2.4417      1.00000
     17      -2.1854      1.00000
     18      -2.1084      1.00000
     19       0.4174      0.00000
     20       0.4825      0.00000
     21       1.0502      0.00000
     22       1.0634      0.00000
     23       1.2465      0.00000
     24       1.3038      0.00000
     25       2.6721      0.00000
     26       2.7095      0.00000

 k-point   124 :       0.2500   -0.1667    0.0000
  band No.  band energies     occupation 
      1     -13.9172      1.00000
      2     -13.9039      1.00000
      3     -13.5160      1.00000
      4     -13.5143      1.00000
      5      -6.3708      1.00000
      6      -6.3631      1.00000
      7      -5.6419      1.00000
      8      -5.6268      1.00000
      9      -5.0437      1.00000
     10      -5.0341      1.00000
     11      -4.6283      1.00000
     12      -4.6095      1.00000
     13      -3.5592      1.00000
     14      -3.5002      1.00000
     15      -2.7867      1.00000
     16      -2.7652      1.00000
     17      -2.1033      1.00000
     18      -2.0061      1.00000
     19       0.5667      0.00000
     20       0.6336      0.00000
     21       1.1812      0.00000
     22       1.1886      0.00000
     23       1.5506      0.00000
     24       1.5797      0.00000
     25       2.9066      0.00000
     26       2.9142      0.00000

 k-point   125 :       0.3333   -0.1667    0.0000
  band No.  band energies     occupation 
      1     -13.5620      1.00000
      2     -13.5428      1.00000
      3     -13.3380      1.00000
      4     -13.3357      1.00000
      5      -6.6028      1.00000
      6      -6.5939      1.00000
      7      -6.1837      1.00000
      8      -6.1749      1.00000
      9      -5.1437      1.00000
     10      -5.1424      1.00000
     11      -4.5491      1.00000
     12      -4.5322      1.00000
     13      -3.6921      1.00000
     14      -3.6429      1.00000
     15      -3.1605      1.00000
     16      -3.1498      1.00000
     17      -1.8581      1.00000
     18      -1.7513      1.00000
     19       0.7960      0.00000
     20       0.8118      0.00000
     21       1.3522      0.00000
     22       1.4594      0.00000
     23       1.8555      0.00000
     24       1.8621      0.00000
     25       2.9602      0.00000
     26       2.9916      0.00000

 k-point   126 :       0.4167   -0.1667    0.0000
  band No.  band energies     occupation 
      1     -13.4210      1.00000
      2     -13.3993      1.00000
      3     -13.2681      1.00000
      4     -13.2656      1.00000
      5      -6.6980      1.00000
      6      -6.6798      1.00000
      7      -6.3818      1.00000
      8      -6.3749      1.00000
      9      -5.2586      1.00000
     10      -5.2537      1.00000
     11      -4.4761      1.00000
     12      -4.4580      1.00000
     13      -3.6937      1.00000
     14      -3.6475      1.00000
     15      -3.3406      1.00000
     16      -3.3354      1.00000
     17      -1.6910      1.00000
     18      -1.5785      1.00000
     19       0.7648      0.00000
     20       0.8093      0.00000
     21       1.5442      0.00000
     22       1.6911      0.00000
     23       1.9692      0.00000
     24       1.9943      0.00000
     25       2.9471      0.00000
     26       2.9994      0.00000

 k-point   127 :       0.5000   -0.1667    0.0000
  band No.  band energies     occupation 
      1     -13.5620      1.00000
      2     -13.5428      1.00000
      3     -13.3380      1.00000
      4     -13.3357      1.00000
      5      -6.6028      1.00000
      6      -6.5939      1.00000
      7      -6.1837      1.00000
      8      -6.1748      1.00000
      9      -5.1437      1.00000
     10      -5.1424      1.00000
     11      -4.5491      1.00000
     12      -4.5322      1.00000
     13      -3.6921      1.00000
     14      -3.6429      1.00000
     15      -3.1605      1.00000
     16      -3.1498      1.00000
     17      -1.8581      1.00000
     18      -1.7513      1.00000
     19       0.7960      0.00000
     20       0.8118      0.00000
     21       1.3522      0.00000
     22       1.4594      0.00000
     23       1.8555      0.00000
     24       1.8621      0.00000
     25       2.9602      0.00000
     26       2.9915      0.00000

 k-point   128 :      -0.4167   -0.1667    0.0000
  band No.  band energies     occupation 
      1     -13.9172      1.00000
      2     -13.9039      1.00000
      3     -13.5160      1.00000
      4     -13.5143      1.00000
      5      -6.3708      1.00000
      6      -6.3631      1.00000
      7      -5.6419      1.00000
      8      -5.6268      1.00000
      9      -5.0437      1.00000
     10      -5.0341      1.00000
     11      -4.6283      1.00000
     12      -4.6095      1.00000
     13      -3.5592      1.00000
     14      -3.5002      1.00000
     15      -2.7867      1.00000
     16      -2.7652      1.00000
     17      -2.1033      1.00000
     18      -2.0061      1.00000
     19       0.5667      0.00000
     20       0.6336      0.00000
     21       1.1812      0.00000
     22       1.1886      0.00000
     23       1.5506      0.00000
     24       1.5798      0.00000
     25       2.9065      0.00000
     26       2.9142      0.00000

 k-point   129 :      -0.3333   -0.1667    0.0000
  band No.  band energies     occupation 
      1     -14.3482      1.00000
      2     -14.3410      1.00000
      3     -13.7344      1.00000
      4     -13.7334      1.00000
      5      -6.1730      1.00000
      6      -6.1586      1.00000
      7      -5.1086      1.00000
      8      -5.1033      1.00000
      9      -4.9493      1.00000
     10      -4.9205      1.00000
     11      -4.5021      1.00000
     12      -4.4755      1.00000
     13      -3.2478      1.00000
     14      -3.1791      1.00000
     15      -2.4766      1.00000
     16      -2.4417      1.00000
     17      -2.1854      1.00000
     18      -2.1084      1.00000
     19       0.4174      0.00000
     20       0.4825      0.00000
     21       1.0502      0.00000
     22       1.0634      0.00000
     23       1.2465      0.00000
     24       1.3039      0.00000
     25       2.6720      0.00000
     26       2.7095      0.00000

 k-point   130 :      -0.2500   -0.1667    0.0000
  band No.  band energies     occupation 
      1     -14.7335      1.00000
      2     -14.7308      1.00000
      3     -13.9306      1.00000
      4     -13.9302      1.00000
      5      -6.2709      1.00000
      6      -6.2654      1.00000
      7      -4.9162      1.00000
      8      -4.9113      1.00000
      9      -4.5463      1.00000
     10      -4.5381      1.00000
     11      -3.8266      1.00000
     12      -3.8254      1.00000
     13      -3.2041      1.00000
     14      -3.1675      1.00000
     15      -2.4215      1.00000
     16      -2.3899      1.00000
     17      -1.9974      1.00000
     18      -1.9697      1.00000
     19       0.6024      0.00000
     20       0.6249      0.00000
     21       1.0356      0.00000
     22       1.0419      0.00000
     23       1.1532      0.00000
     24       1.2200      0.00000
     25       2.2883      0.00000
     26       2.3343      0.00000

 k-point   131 :      -0.1667   -0.1667    0.0000
  band No.  band energies     occupation 
      1     -14.9932      1.00000
      2     -14.9932      1.00000
      3     -14.0631      1.00000
      4     -14.0631      1.00000
      5      -6.4818      1.00000
      6      -6.4818      1.00000
      7      -4.5684      1.00000
      8      -4.5684      1.00000
      9      -4.2230      1.00000
     10      -4.2230      1.00000
     11      -3.3840      1.00000
     12      -3.3840      1.00000
     13      -3.2531      1.00000
     14      -3.2531      1.00000
     15      -2.4710      1.00000
     16      -2.4710      1.00000
     17      -1.7683      1.00000
     18      -1.7683      1.00000
     19       0.8154      0.00000
     20       0.8154      0.00000
     21       1.1776      0.00000
     22       1.1776      0.00000
     23       1.2194      0.00000
     24       1.2194      0.00000
     25       1.9635      0.00000
     26       1.9635      0.00000

 k-point   132 :      -0.0833   -0.1667    0.0000
  band No.  band energies     occupation 
      1     -15.0851      1.00000
      2     -15.0842      1.00000
      3     -14.1097      1.00000
      4     -14.1095      1.00000
      5      -6.5712      1.00000
      6      -6.5698      1.00000
      7      -4.4082      1.00000
      8      -4.3984      1.00000
      9      -4.0164      1.00000
     10      -4.0163      1.00000
     11      -3.4965      1.00000
     12      -3.4743      1.00000
     13      -3.2627      1.00000
     14      -3.2530      1.00000
     15      -2.3560      1.00000
     16      -2.3275      1.00000
     17      -1.6936      1.00000
     18      -1.6886      1.00000
     19       0.9153      0.00000
     20       0.9271      0.00000
     21       1.0917      0.00000
     22       1.1419      0.00000
     23       1.2502      0.00000
     24       1.2790      0.00000
     25       1.8711      0.00000
     26       1.9199      0.00000

 k-point   133 :       0.0000   -0.0833    0.0000
  band No.  band energies     occupation 
      1     -15.2750      1.00000
      2     -15.2750      1.00000
      3     -14.2068      1.00000
      4     -14.2068      1.00000
      5      -6.7845      1.00000
      6      -6.7845      1.00000
      7      -4.0240      1.00000
      8      -4.0240      1.00000
      9      -3.6842      1.00000
     10      -3.6842      1.00000
     11      -3.6060      1.00000
     12      -3.6060      1.00000
     13      -2.8699      1.00000
     14      -2.8699      1.00000
     15      -2.4915      1.00000
     16      -2.4915      1.00000
     17      -1.5755      1.00000
     18      -1.5755      1.00000
     19       1.2489      0.00000
     20       1.2489      0.00000
     21       1.2960      0.00000
     22       1.2960      0.00000
     23       1.4551      0.00000
     24       1.4551      0.00000
     25       1.5967      0.00000
     26       1.5967      0.00000

 k-point   134 :       0.0833   -0.0833    0.0000
  band No.  band energies     occupation 
      1     -15.0851      1.00000
      2     -15.0842      1.00000
      3     -14.1097      1.00000
      4     -14.1095      1.00000
      5      -6.5712      1.00000
      6      -6.5698      1.00000
      7      -4.4082      1.00000
      8      -4.3984      1.00000
      9      -4.0164      1.00000
     10      -4.0163      1.00000
     11      -3.4965      1.00000
     12      -3.4743      1.00000
     13      -3.2627      1.00000
     14      -3.2530      1.00000
     15      -2.3560      1.00000
     16      -2.3275      1.00000
     17      -1.6936      1.00000
     18      -1.6886      1.00000
     19       0.9153      0.00000
     20       0.9271      0.00000
     21       1.0917      0.00000
     22       1.1419      0.00000
     23       1.2502      0.00000
     24       1.2790      0.00000
     25       1.8705      0.00000
     26       1.9190      0.00000

 k-point   135 :       0.1667   -0.0833    0.0000
  band No.  band energies     occupation 
      1     -14.7335      1.00000
      2     -14.7308      1.00000
      3     -13.9306      1.00000
      4     -13.9302      1.00000
      5      -6.2709      1.00000
      6      -6.2654      1.00000
      7      -4.9162      1.00000
      8      -4.9113      1.00000
      9      -4.5463      1.00000
     10      -4.5381      1.00000
     11      -3.8266      1.00000
     12      -3.8254      1.00000
     13      -3.2041      1.00000
     14      -3.1675      1.00000
     15      -2.4215      1.00000
     16      -2.3899      1.00000
     17      -1.9974      1.00000
     18      -1.9697      1.00000
     19       0.6024      0.00000
     20       0.6249      0.00000
     21       1.0356      0.00000
     22       1.0419      0.00000
     23       1.1532      0.00000
     24       1.2200      0.00000
     25       2.2884      0.00000
     26       2.3343      0.00000

 k-point   136 :       0.2500   -0.0833    0.0000
  band No.  band energies     occupation 
      1     -14.2812      1.00000
      2     -14.2758      1.00000
      3     -13.7035      1.00000
      4     -13.7028      1.00000
      5      -6.2712      1.00000
      6      -6.2628      1.00000
      7      -5.2060      1.00000
      8      -5.1974      1.00000
      9      -5.1552      1.00000
     10      -5.1503      1.00000
     11      -4.2096      1.00000
     12      -4.2029      1.00000
     13      -3.0192      1.00000
     14      -2.9554      1.00000
     15      -2.7346      1.00000
     16      -2.7090      1.00000
     17      -2.2431      1.00000
     18      -2.1726      1.00000
     19       0.5396      0.00000
     20       0.5965      0.00000
     21       0.9919      0.00000
     22       1.0127      0.00000
     23       1.5335      0.00000
     24       1.5823      0.00000
     25       2.6142      0.00000
     26       2.6497      0.00000

 k-point   137 :       0.3333   -0.0833    0.0000
  band No.  band energies     occupation 
      1     -13.8334      1.00000
      2     -13.8247      1.00000
      3     -13.4842      1.00000
      4     -13.4831      1.00000
      5      -6.6379      1.00000
      6      -6.6377      1.00000
      7      -5.8126      1.00000
      8      -5.8063      1.00000
      9      -5.2078      1.00000
     10      -5.2059      1.00000
     11      -4.3788      1.00000
     12      -4.3717      1.00000
     13      -3.0801      1.00000
     14      -3.0753      1.00000
     15      -2.9273      1.00000
     16      -2.8748      1.00000
     17      -2.1027      1.00000
     18      -2.0149      1.00000
     19       0.7228      0.00000
     20       0.7602      0.00000
     21       1.1252      0.00000
     22       1.1362      0.00000
     23       2.0029      0.00000
     24       2.0347      0.00000
     25       2.7555      0.00000
     26       2.7756      0.00000

 k-point   138 :       0.4167   -0.0833    0.0000
  band No.  band energies     occupation 
      1     -13.5411      1.00000
      2     -13.5299      1.00000
      3     -13.3454      1.00000
      4     -13.3441      1.00000
      5      -6.9367      1.00000
      6      -6.9287      1.00000
      7      -6.1745      1.00000
      8      -6.1701      1.00000
      9      -5.3231      1.00000
     10      -5.3200      1.00000
     11      -4.4304      1.00000
     12      -4.4232      1.00000
     13      -3.2922      1.00000
     14      -3.2850      1.00000
     15      -2.8177      1.00000
     16      -2.7589      1.00000
     17      -1.8733      1.00000
     18      -1.7787      1.00000
     19       0.8595      0.00000
     20       0.8950      0.00000
     21       1.3101      0.00000
     22       1.4031      0.00000
     23       2.3838      0.00000
     24       2.3991      0.00000
     25       2.6922      0.00000
     26       2.6955      0.00000

 k-point   139 :       0.5000   -0.0833    0.0000
  band No.  band energies     occupation 
      1     -13.5411      1.00000
      2     -13.5299      1.00000
      3     -13.3454      1.00000
      4     -13.3441      1.00000
      5      -6.9367      1.00000
      6      -6.9287      1.00000
      7      -6.1745      1.00000
      8      -6.1701      1.00000
      9      -5.3231      1.00000
     10      -5.3200      1.00000
     11      -4.4304      1.00000
     12      -4.4232      1.00000
     13      -3.2922      1.00000
     14      -3.2850      1.00000
     15      -2.8177      1.00000
     16      -2.7589      1.00000
     17      -1.8733      1.00000
     18      -1.7787      1.00000
     19       0.8595      0.00000
     20       0.8950      0.00000
     21       1.3101      0.00000
     22       1.4031      0.00000
     23       2.3838      0.00000
     24       2.3991      0.00000
     25       2.6922      0.00000
     26       2.6955      0.00000

 k-point   140 :      -0.4167   -0.0833    0.0000
  band No.  band energies     occupation 
      1     -13.8334      1.00000
      2     -13.8247      1.00000
      3     -13.4842      1.00000
      4     -13.4831      1.00000
      5      -6.6379      1.00000
      6      -6.6377      1.00000
      7      -5.8126      1.00000
      8      -5.8063      1.00000
      9      -5.2078      1.00000
     10      -5.2059      1.00000
     11      -4.3788      1.00000
     12      -4.3717      1.00000
     13      -3.0801      1.00000
     14      -3.0753      1.00000
     15      -2.9273      1.00000
     16      -2.8748      1.00000
     17      -2.1027      1.00000
     18      -2.0149      1.00000
     19       0.7228      0.00000
     20       0.7602      0.00000
     21       1.1252      0.00000
     22       1.1362      0.00000
     23       2.0029      0.00000
     24       2.0347      0.00000
     25       2.7555      0.00000
     26       2.7756      0.00000

 k-point   141 :      -0.3333   -0.0833    0.0000
  band No.  band energies     occupation 
      1     -14.2812      1.00000
      2     -14.2758      1.00000
      3     -13.7035      1.00000
      4     -13.7028      1.00000
      5      -6.2712      1.00000
      6      -6.2628      1.00000
      7      -5.2060      1.00000
      8      -5.1974      1.00000
      9      -5.1552      1.00000
     10      -5.1503      1.00000
     11      -4.2096      1.00000
     12      -4.2029      1.00000
     13      -3.0192      1.00000
     14      -2.9554      1.00000
     15      -2.7346      1.00000
     16      -2.7090      1.00000
     17      -2.2431      1.00000
     18      -2.1726      1.00000
     19       0.5396      0.00000
     20       0.5965      0.00000
     21       0.9919      0.00000
     22       1.0127      0.00000
     23       1.5335      0.00000
     24       1.5823      0.00000
     25       2.6142      0.00000
     26       2.6497      0.00000

 k-point   142 :      -0.2500   -0.0833    0.0000
  band No.  band energies     occupation 
      1     -14.7335      1.00000
      2     -14.7308      1.00000
      3     -13.9306      1.00000
      4     -13.9302      1.00000
      5      -6.2709      1.00000
      6      -6.2654      1.00000
      7      -4.9162      1.00000
      8      -4.9113      1.00000
      9      -4.5463      1.00000
     10      -4.5381      1.00000
     11      -3.8266      1.00000
     12      -3.8254      1.00000
     13      -3.2041      1.00000
     14      -3.1675      1.00000
     15      -2.4215      1.00000
     16      -2.3899      1.00000
     17      -1.9974      1.00000
     18      -1.9697      1.00000
     19       0.6024      0.00000
     20       0.6249      0.00000
     21       1.0356      0.00000
     22       1.0419      0.00000
     23       1.1532      0.00000
     24       1.2200      0.00000
     25       2.2883      0.00000
     26       2.3343      0.00000

 k-point   143 :      -0.1667   -0.0833    0.0000
  band No.  band energies     occupation 
      1     -15.0851      1.00000
      2     -15.0842      1.00000
      3     -14.1097      1.00000
      4     -14.1095      1.00000
      5      -6.5712      1.00000
      6      -6.5698      1.00000
      7      -4.4082      1.00000
      8      -4.3984      1.00000
      9      -4.0164      1.00000
     10      -4.0163      1.00000
     11      -3.4965      1.00000
     12      -3.4743      1.00000
     13      -3.2627      1.00000
     14      -3.2530      1.00000
     15      -2.3560      1.00000
     16      -2.3275      1.00000
     17      -1.6936      1.00000
     18      -1.6886      1.00000
     19       0.9153      0.00000
     20       0.9271      0.00000
     21       1.0917      0.00000
     22       1.1419      0.00000
     23       1.2502      0.00000
     24       1.2790      0.00000
     25       1.8705      0.00000
     26       1.9190      0.00000

 k-point   144 :      -0.0833   -0.0833    0.0000
  band No.  band energies     occupation 
      1     -15.2750      1.00000
      2     -15.2750      1.00000
      3     -14.2068      1.00000
      4     -14.2068      1.00000
      5      -6.7845      1.00000
      6      -6.7845      1.00000
      7      -4.0240      1.00000
      8      -4.0240      1.00000
      9      -3.6842      1.00000
     10      -3.6842      1.00000
     11      -3.6060      1.00000
     12      -3.6060      1.00000
     13      -2.8699      1.00000
     14      -2.8699      1.00000
     15      -2.4915      1.00000
     16      -2.4915      1.00000
     17      -1.5755      1.00000
     18      -1.5755      1.00000
     19       1.2489      0.00000
     20       1.2489      0.00000
     21       1.2960      0.00000
     22       1.2960      0.00000
     23       1.4551      0.00000
     24       1.4551      0.00000
     25       1.5967      0.00000
     26       1.5967      0.00000


--------------------------------------------------------------------------------------------------------


 soft charge-density along one line, spin component           1
         0         1         2         3         4         5         6         7         8         9
x     0.0000    0.0000    0.0000    0.0000    0.0000    0.0000    0.0000    0.0000    0.0000    0.0000
x     0.0000    0.0000    0.0000    0.0000    0.0000    0.0000    0.0000    0.0000
y     0.0000    0.0000    0.0000    0.0000    0.0000    0.0000    0.0000    0.0000    0.0000    0.0000
y     0.0000    0.0000    0.0000    0.0000    0.0000    0.0000    0.0000    0.0000
z     0.0000    0.0000    0.0000    0.0000    0.0000    0.0000    0.0000    0.0000    0.0000    0.0000
z     0.0000    0.0000    0.0000    0.0000    0.0000    0.0000    0.0000    0.0000    0.0000    0.0000
z     0.0000    0.0000    0.0000    0.0000    0.0000    0.0000    0.0000    0.0000    0.0000    0.0000
z     0.0000    0.0000    0.0000    0.0000    0.0000    0.0000    0.0000    0.0000    0.0000    0.0000
z     0.0000    0.0000    0.0000    0.0000    0.0000    0.0000    0.0000    0.0000    0.0000    0.0000
z     0.0000    0.0000    0.0000    0.0000    0.0000    0.0000    0.0000    0.0000    0.0000    0.0000
z     0.0000    0.0000    0.0000    0.0000    0.0000    0.0000    0.0000    0.0000    0.0000    0.0000
z     0.0000    0.0000    0.0000    0.0000    0.0000    0.0000    0.0000    0.0000    0.0000    0.0000
z     0.0000    0.0000
 total charge-density along one line
x    18.0000   -0.0000   -0.6255   -3.8182    0.1518   -0.3733   -0.3296    0.0315    0.0537    0.0517
x     0.0038   -0.0023   -0.0026    0.0002    0.0002    0.0002   -0.0002    0.0003   -0.0002    0.0000
x    -0.0000   -0.0000   -0.0000    0.0001   -0.0000   -0.0000   -0.0000   -0.0000   -0.0000    0.0000
x    -0.0000    0.0000   -0.0000    0.0000
y    18.0000   -0.0000   -0.6255   -3.8182    0.1518   -0.3733   -0.3296    0.0315    0.0537    0.0517
y     0.0038   -0.0023   -0.0026    0.0002    0.0002    0.0002   -0.0002    0.0003   -0.0002    0.0000
y    -0.0000   -0.0000   -0.0000    0.0001   -0.0000   -0.0000   -0.0000   -0.0000   -0.0000    0.0000
y    -0.0000    0.0000   -0.0000    0.0000
z    18.0000   -0.0000  -14.7899    0.0000    7.3297   -0.0000   -0.1899   -0.0000   -3.3481    0.0000
z     3.1419   -0.0000   -1.2045    0.0000   -0.3968    0.0000    0.8356   -0.0000   -0.4635    0.0000
z     0.0182   -0.0000    0.0615   -0.0000    0.1871    0.0000   -0.4731   -0.0000    0.5567   -0.0000
z    -0.4009    0.0000    0.1330   -0.0000    0.0871    0.0000   -0.1728    0.0000    0.1362   -0.0000
z    -0.0461    0.0000   -0.0306    0.0000    0.0633   -0.0000   -0.0580    0.0000    0.0373   -0.0000
z    -0.0192   -0.0000    0.0096    0.0000   -0.0054   -0.0000    0.0026   -0.0000    0.0000    0.0000
z    -0.0013   -0.0000    0.0006    0.0000    0.0009    0.0000   -0.0017   -0.0000    0.0012    0.0000
z     0.0000    0.0000   -0.0009   -0.0000    0.0007    0.0000   -0.0001   -0.0000   -0.0004   -0.0000
z     0.0003    0.0000    0.0002   -0.0000   -0.0005   -0.0000    0.0005    0.0000   -0.0002   -0.0000
z    -0.0000    0.0000    0.0000    0.0000    0.0001   -0.0000   -0.0002    0.0000    0.0001    0.0000
z     0.0001   -0.0000   -0.0002    0.0000    0.0002    0.0000   -0.0000   -0.0000   -0.0000    0.0000
z    -0.0000   -0.0000    0.0001   -0.0000   -0.0001    0.0000    0.0000   -0.0000    0.0000    0.0000
z    -0.0001    0.0000    0.0000   -0.0000    0.0000    0.0000   -0.0000    0.0000   -0.0000   -0.0000
z     0.0000    0.0000   -0.0001   -0.0000    0.0000   -0.0000    0.0000    0.0000   -0.0000   -0.0000
z    -0.0000   -0.0000    0.0000    0.0000   -0.0000   -0.0000   -0.0000   -0.0000    0.0000    0.0000
z    -0.0000   -0.0000    0.0000    0.0000    0.0000    0.0000   -0.0000   -0.0000   -0.0000    0.0000
z     0.0000    0.0000
 
 soft charge-density along one line, spin component           2
         0         1         2         3         4         5         6         7         8         9
x     0.0000    0.0000    0.0000    0.0000    0.0000    0.0000    0.0000    0.0000    0.0000    0.0000
x     0.0000    0.0000    0.0000    0.0000    0.0000    0.0000    0.0000    0.0000
y     0.0000    0.0000    0.0000    0.0000    0.0000    0.0000    0.0000    0.0000    0.0000    0.0000
y     0.0000    0.0000    0.0000    0.0000    0.0000    0.0000    0.0000    0.0000
z     0.0000    0.0000    0.0000    0.0000    0.0000    0.0000    0.0000    0.0000    0.0000    0.0000
z     0.0000    0.0000    0.0000    0.0000    0.0000    0.0000    0.0000    0.0000    0.0000    0.0000
z     0.0000    0.0000    0.0000    0.0000    0.0000    0.0000    0.0000    0.0000    0.0000    0.0000
z     0.0000    0.0000    0.0000    0.0000    0.0000    0.0000    0.0000    0.0000    0.0000    0.0000
z     0.0000    0.0000    0.0000    0.0000    0.0000    0.0000    0.0000    0.0000    0.0000    0.0000
z     0.0000    0.0000    0.0000    0.0000    0.0000    0.0000    0.0000    0.0000    0.0000    0.0000
z     0.0000    0.0000    0.0000    0.0000    0.0000    0.0000    0.0000    0.0000    0.0000    0.0000
z     0.0000    0.0000    0.0000    0.0000    0.0000    0.0000    0.0000    0.0000    0.0000    0.0000
z     0.0000    0.0000
 total charge-density along one line
x     0.0000    0.0000   -0.0000   -0.0000    0.0000    0.0000    0.0000   -0.0000   -0.0000    0.0000
x    -0.0000    0.0000    0.0000   -0.0000    0.0000   -0.0000   -0.0000   -0.0000   -0.0000   -0.0000
x    -0.0000   -0.0000    0.0000    0.0000    0.0000    0.0000    0.0000   -0.0000   -0.0000    0.0000
x     0.0000   -0.0000   -0.0000   -0.0000
y     0.0000    0.0000   -0.0000   -0.0000   -0.0000    0.0000    0.0000   -0.0000   -0.0000   -0.0000
y     0.0000   -0.0000   -0.0000    0.0000   -0.0000    0.0000    0.0000   -0.0000    0.0000   -0.0000
y     0.0000   -0.0000   -0.0000    0.0000   -0.0000   -0.0000    0.0000   -0.0000   -0.0000    0.0000
y     0.0000    0.0000    0.0000   -0.0000
z     0.0000    0.0000   -0.0000   -0.0000    0.0000    0.0000    0.0000   -0.0000   -0.0000   -0.0000
z     0.0000    0.0000   -0.0000   -0.0000   -0.0000   -0.0000    0.0000    0.0000   -0.0000   -0.0000
z     0.0000    0.0000   -0.0000   -0.0000   -0.0000    0.0000    0.0000   -0.0000   -0.0000    0.0000
z     0.0000   -0.0000   -0.0000    0.0000    0.0000   -0.0000    0.0000    0.0000   -0.0000   -0.0000
z     0.0000    0.0000   -0.0000   -0.0000    0.0000    0.0000   -0.0000   -0.0000   -0.0000    0.0000
z     0.0000   -0.0000   -0.0000    0.0000   -0.0000    0.0000    0.0000   -0.0000   -0.0000    0.0000
z     0.0000   -0.0000    0.0000    0.0000    0.0000    0.0000   -0.0000   -0.0000   -0.0000    0.0000
z     0.0000    0.0000    0.0000   -0.0000   -0.0000   -0.0000    0.0000   -0.0000   -0.0000    0.0000
z     0.0000   -0.0000   -0.0000    0.0000    0.0000    0.0000    0.0000   -0.0000   -0.0000    0.0000
z     0.0000   -0.0000    0.0000   -0.0000   -0.0000    0.0000   -0.0000   -0.0000   -0.0000    0.0000
z     0.0000   -0.0000   -0.0000    0.0000    0.0000    0.0000    0.0000   -0.0000   -0.0000    0.0000
z     0.0000    0.0000    0.0000   -0.0000   -0.0000    0.0000    0.0000   -0.0000   -0.0000   -0.0000
z    -0.0000    0.0000    0.0000   -0.0000   -0.0000    0.0000    0.0000   -0.0000   -0.0000   -0.0000
z    -0.0000    0.0000    0.0000   -0.0000   -0.0000    0.0000    0.0000    0.0000   -0.0000   -0.0000
z     0.0000    0.0000    0.0000   -0.0000   -0.0000   -0.0000    0.0000    0.0000   -0.0000   -0.0000
z     0.0000    0.0000   -0.0000   -0.0000    0.0000   -0.0000    0.0000    0.0000   -0.0000   -0.0000
z     0.0000   -0.0000
 
 soft charge-density along one line, spin component           3
         0         1         2         3         4         5         6         7         8         9
x     0.0000    0.0000    0.0000    0.0000    0.0000    0.0000    0.0000    0.0000    0.0000    0.0000
x     0.0000    0.0000    0.0000    0.0000    0.0000    0.0000    0.0000    0.0000
y     0.0000    0.0000    0.0000    0.0000    0.0000    0.0000    0.0000    0.0000    0.0000    0.0000
y     0.0000    0.0000    0.0000    0.0000    0.0000    0.0000    0.0000    0.0000
z     0.0000    0.0000    0.0000    0.0000    0.0000    0.0000    0.0000    0.0000    0.0000    0.0000
z     0.0000    0.0000    0.0000    0.0000    0.0000    0.0000    0.0000    0.0000    0.0000    0.0000
z     0.0000    0.0000    0.0000    0.0000    0.0000    0.0000    0.0000    0.0000    0.0000    0.0000
z     0.0000    0.0000    0.0000    0.0000    0.0000    0.0000    0.0000    0.0000    0.0000    0.0000
z     0.0000    0.0000    0.0000    0.0000    0.0000    0.0000    0.0000    0.0000    0.0000    0.0000
z     0.0000    0.0000    0.0000    0.0000    0.0000    0.0000    0.0000    0.0000    0.0000    0.0000
z     0.0000    0.0000    0.0000    0.0000    0.0000    0.0000    0.0000    0.0000    0.0000    0.0000
z     0.0000    0.0000    0.0000    0.0000    0.0000    0.0000    0.0000    0.0000    0.0000    0.0000
z     0.0000    0.0000
 total charge-density along one line
x     0.0000    0.0000    0.0000   -0.0000   -0.0000    0.0000    0.0000    0.0000    0.0000   -0.0000
x    -0.0000   -0.0000   -0.0000    0.0000    0.0000   -0.0000   -0.0000   -0.0000   -0.0000    0.0000
x     0.0000    0.0000    0.0000   -0.0000   -0.0000   -0.0000   -0.0000    0.0000    0.0000    0.0000
x     0.0000   -0.0000   -0.0000    0.0000
y     0.0000    0.0000   -0.0000    0.0000    0.0000    0.0000    0.0000   -0.0000   -0.0000   -0.0000
y     0.0000   -0.0000   -0.0000   -0.0000   -0.0000    0.0000    0.0000    0.0000    0.0000   -0.0000
y    -0.0000    0.0000   -0.0000    0.0000    0.0000   -0.0000    0.0000   -0.0000    0.0000   -0.0000
y    -0.0000    0.0000   -0.0000   -0.0000
z     0.0000    0.0000   -0.0000   -0.0000    0.0000   -0.0000    0.0000   -0.0000   -0.0000   -0.0000
z     0.0000   -0.0000   -0.0000    0.0000    0.0000   -0.0000    0.0000   -0.0000   -0.0000    0.0000
z     0.0000   -0.0000   -0.0000    0.0000   -0.0000   -0.0000    0.0000    0.0000    0.0000   -0.0000
z    -0.0000    0.0000    0.0000   -0.0000   -0.0000    0.0000   -0.0000   -0.0000    0.0000    0.0000
z    -0.0000   -0.0000    0.0000    0.0000   -0.0000   -0.0000   -0.0000    0.0000    0.0000   -0.0000
z    -0.0000   -0.0000    0.0000    0.0000   -0.0000   -0.0000    0.0000    0.0000    0.0000   -0.0000
z    -0.0000    0.0000    0.0000    0.0000    0.0000   -0.0000   -0.0000    0.0000    0.0000   -0.0000
z    -0.0000   -0.0000    0.0000    0.0000    0.0000   -0.0000   -0.0000    0.0000    0.0000    0.0000
z    -0.0000   -0.0000   -0.0000    0.0000    0.0000   -0.0000   -0.0000    0.0000    0.0000    0.0000
z     0.0000   -0.0000   -0.0000    0.0000    0.0000   -0.0000   -0.0000   -0.0000    0.0000    0.0000
z     0.0000   -0.0000   -0.0000    0.0000    0.0000   -0.0000   -0.0000   -0.0000    0.0000    0.0000
z     0.0000   -0.0000   -0.0000    0.0000   -0.0000   -0.0000    0.0000   -0.0000   -0.0000    0.0000
z     0.0000   -0.0000    0.0000    0.0000   -0.0000    0.0000    0.0000   -0.0000   -0.0000    0.0000
z     0.0000    0.0000   -0.0000   -0.0000   -0.0000    0.0000    0.0000    0.0000   -0.0000   -0.0000
z     0.0000    0.0000   -0.0000   -0.0000   -0.0000    0.0000    0.0000   -0.0000   -0.0000    0.0000
z     0.0000    0.0000   -0.0000   -0.0000   -0.0000    0.0000    0.0000   -0.0000    0.0000   -0.0000
z    -0.0000    0.0000
 
 soft charge-density along one line, spin component           4
         0         1         2         3         4         5         6         7         8         9
x     0.0000    0.0000    0.0000    0.0000    0.0000    0.0000    0.0000    0.0000    0.0000    0.0000
x     0.0000    0.0000    0.0000    0.0000    0.0000    0.0000    0.0000    0.0000
y     0.0000    0.0000    0.0000    0.0000    0.0000    0.0000    0.0000    0.0000    0.0000    0.0000
y     0.0000    0.0000    0.0000    0.0000    0.0000    0.0000    0.0000    0.0000
z     0.0000    0.0000    0.0000    0.0000    0.0000    0.0000    0.0000    0.0000    0.0000    0.0000
z     0.0000    0.0000    0.0000    0.0000    0.0000    0.0000    0.0000    0.0000    0.0000    0.0000
z     0.0000    0.0000    0.0000    0.0000    0.0000    0.0000    0.0000    0.0000    0.0000    0.0000
z     0.0000    0.0000    0.0000    0.0000    0.0000    0.0000    0.0000    0.0000    0.0000    0.0000
z     0.0000    0.0000    0.0000    0.0000    0.0000    0.0000    0.0000    0.0000    0.0000    0.0000
z     0.0000    0.0000    0.0000    0.0000    0.0000    0.0000    0.0000    0.0000    0.0000    0.0000
z     0.0000    0.0000    0.0000    0.0000    0.0000    0.0000    0.0000    0.0000    0.0000    0.0000
z     0.0000    0.0000    0.0000    0.0000    0.0000    0.0000    0.0000    0.0000    0.0000    0.0000
z     0.0000    0.0000
 total charge-density along one line
x    -0.0000    0.0000    0.0000   -0.0000    0.0000   -0.0000    0.0000   -0.0000    0.0000   -0.0000
x     0.0000   -0.0000    0.0000   -0.0000    0.0000    0.0000    0.0000   -0.0000    0.0000   -0.0000
x     0.0000   -0.0000    0.0000    0.0000    0.0000   -0.0000   -0.0000    0.0000    0.0000    0.0000
x     0.0000   -0.0000    0.0000   -0.0000
y    -0.0000    0.0000    0.0000    0.0000   -0.0000    0.0000   -0.0000   -0.0000    0.0000   -0.0000
y     0.0000   -0.0000   -0.0000    0.0000    0.0000    0.0000    0.0000    0.0000    0.0000   -0.0000
y     0.0000   -0.0000    0.0000   -0.0000   -0.0000    0.0000   -0.0000    0.0000   -0.0000    0.0000
y     0.0000    0.0000    0.0000    0.0000
z    -0.0000    0.0000    0.0000   -0.0000   -0.0000    0.0000   -0.0000    0.0000    0.0000   -0.0000
z    -0.0000   -0.0000    0.0000    0.0000    0.0000    0.0000   -0.0000   -0.0000    0.0000    0.0000
z    -0.0000    0.0000    0.0000   -0.0000   -0.0000    0.0000   -0.0000   -0.0000    0.0000   -0.0000
z    -0.0000    0.0000    0.0000   -0.0000   -0.0000    0.0000    0.0000   -0.0000   -0.0000   -0.0000
z     0.0000    0.0000   -0.0000   -0.0000    0.0000    0.0000   -0.0000    0.0000    0.0000   -0.0000
z    -0.0000    0.0000    0.0000   -0.0000   -0.0000    0.0000    0.0000   -0.0000   -0.0000    0.0000
z     0.0000   -0.0000   -0.0000   -0.0000    0.0000    0.0000   -0.0000   -0.0000    0.0000   -0.0000
z    -0.0000    0.0000   -0.0000   -0.0000    0.0000    0.0000   -0.0000   -0.0000    0.0000   -0.0000
z    -0.0000    0.0000   -0.0000   -0.0000   -0.0000    0.0000    0.0000    0.0000   -0.0000    0.0000
z     0.0000   -0.0000   -0.0000   -0.0000    0.0000    0.0000   -0.0000   -0.0000    0.0000   -0.0000
z    -0.0000    0.0000    0.0000   -0.0000   -0.0000   -0.0000    0.0000    0.0000   -0.0000   -0.0000
z     0.0000    0.0000   -0.0000    0.0000    0.0000   -0.0000   -0.0000    0.0000    0.0000   -0.0000
z    -0.0000   -0.0000    0.0000    0.0000   -0.0000   -0.0000    0.0000   -0.0000   -0.0000    0.0000
z     0.0000   -0.0000   -0.0000    0.0000    0.0000    0.0000   -0.0000   -0.0000    0.0000    0.0000
z    -0.0000   -0.0000   -0.0000   -0.0000    0.0000    0.0000   -0.0000   -0.0000    0.0000    0.0000
z    -0.0000    0.0000    0.0000   -0.0000   -0.0000    0.0000    0.0000   -0.0000   -0.0000    0.0000
z     0.0000   -0.0000
 
 pseudopotential strength for first ion, spin component:           1
 -9.437   0.000   0.000   0.000   0.000   0.000  -0.000   0.000   0.000   0.081  -9.628   0.000   0.000   0.000   0.000   0.000
  0.000   0.000  -9.433   0.000  -0.000   0.000  -0.000   0.041   0.000   0.000   0.000   0.000  -9.624   0.000  -0.000   0.000
  0.000   0.000  -0.000   0.000  -9.429   0.000   0.000   0.000   0.000   0.000   0.000   0.000  -0.000   0.000  -9.620   0.000
 -0.000   0.000  -0.000  -0.041   0.000   0.000  -9.433   0.000   0.000   0.000  -0.000   0.000  -0.000  -0.040   0.000   0.000
  0.000  -0.081   0.000   0.000   0.000   0.000   0.000   0.000  -9.437   0.000   0.000  -0.080   0.000   0.000   0.000   0.000
 -9.628   0.000   0.000   0.000   0.000   0.000  -0.000   0.000   0.000   0.080  -9.809   0.000   0.000   0.000   0.000   0.000
  0.000   0.000  -9.624   0.000  -0.000   0.000  -0.000   0.040   0.000   0.000   0.000   0.000  -9.804   0.000  -0.000   0.000
  0.000   0.000  -0.000   0.000  -9.620   0.000   0.000   0.000   0.000   0.000   0.000   0.000  -0.000   0.000  -9.800   0.000
 -0.000   0.000  -0.000  -0.040   0.000   0.000  -9.624   0.000   0.000   0.000  -0.000   0.000  -0.000  -0.039   0.000   0.000
  0.000  -0.080   0.000   0.000   0.000   0.000   0.000   0.000  -9.628   0.000   0.000  -0.079   0.000   0.000   0.000   0.000
  0.000   0.000   0.000   0.000  -0.003   0.000  -0.000   0.000   0.000   0.000   0.000   0.000   0.000   0.000  -0.003   0.000
  0.000   0.000   0.000   0.000  -0.006   0.000  -0.000   0.000   0.000   0.000   0.000   0.000   0.000   0.000  -0.006   0.000
  0.000   0.000  -0.000   0.000  -0.000   0.000   0.000   0.000   0.004   0.000   0.000   0.000  -0.000   0.000  -0.000   0.000
  0.000   0.000   0.000   0.000  -0.000   0.000   0.000   0.000  -0.000   0.000   0.000   0.000   0.000   0.000  -0.000   0.000
  0.004   0.000   0.000   0.000  -0.000   0.000  -0.000   0.000   0.000   0.000   0.004   0.000   0.000   0.000  -0.000   0.000
  0.000   0.000  -0.000   0.000  -0.000   0.000   0.000   0.000   0.004   0.000   0.000   0.000  -0.000   0.000  -0.000   0.000
  0.000   0.000   0.000   0.000  -0.000   0.000   0.000   0.000  -0.000   0.000   0.000   0.000   0.000   0.000  -0.000   0.000
  0.004   0.000   0.000   0.000  -0.000   0.000  -0.000   0.000   0.000   0.000   0.005   0.000   0.000   0.000  -0.000   0.000
 pseudopotential strength for first ion, spin component:           2
 -0.000  -0.000   0.041  -0.000   0.000   0.000  -0.000  -0.041  -0.000  -0.000  -0.000  -0.000   0.040  -0.000   0.000   0.000
 -0.041  -0.000  -0.000  -0.000  -0.000  -0.070  -0.000  -0.000   0.000  -0.041  -0.040  -0.000  -0.000  -0.000  -0.000  -0.069
  0.000   0.000  -0.000   0.070  -0.000  -0.000  -0.070  -0.000   0.000   0.000   0.000   0.000  -0.000   0.069  -0.000  -0.000
 -0.000   0.041  -0.000  -0.000   0.070  -0.000  -0.000  -0.000  -0.041  -0.000  -0.000   0.040  -0.000  -0.000   0.069  -0.000
 -0.000  -0.000   0.000   0.041   0.000   0.000   0.041  -0.000  -0.000  -0.000  -0.000  -0.000   0.000   0.040   0.000   0.000
 -0.000  -0.000   0.040  -0.000   0.000   0.000  -0.000  -0.040  -0.000  -0.000  -0.000  -0.000   0.039  -0.000   0.000   0.000
 -0.040  -0.000  -0.000  -0.000  -0.000  -0.069  -0.000  -0.000   0.000  -0.040  -0.039  -0.000  -0.000  -0.000  -0.000  -0.068
  0.000   0.000  -0.000   0.069  -0.000  -0.000  -0.069  -0.000   0.000   0.000   0.000   0.000  -0.000   0.068  -0.000  -0.000
 -0.000   0.040  -0.000  -0.000   0.069  -0.000  -0.000  -0.000  -0.040  -0.000  -0.000   0.039  -0.000  -0.000   0.068  -0.000
 -0.000  -0.000   0.000   0.040   0.000   0.000   0.040  -0.000  -0.000  -0.000  -0.000  -0.000   0.000   0.039   0.000   0.000
  0.000   0.000   0.000   0.000  -0.000  -0.000   0.000   0.000   0.000   0.000   0.000   0.000   0.000   0.000  -0.000  -0.000
  0.000   0.000   0.000   0.000  -0.000  -0.000   0.000   0.000   0.000   0.000   0.000   0.000   0.000   0.000  -0.000  -0.000
 -0.000  -0.000   0.000  -0.000   0.000   0.000   0.000  -0.000   0.000   0.000  -0.000  -0.000   0.000  -0.000   0.000   0.000
  0.000  -0.000  -0.000  -0.000   0.000   0.000  -0.000  -0.000  -0.000   0.000   0.000  -0.000  -0.000  -0.000   0.000   0.000
 -0.000  -0.000   0.000  -0.000   0.000   0.000  -0.000   0.000  -0.000  -0.000  -0.000  -0.000   0.000  -0.000   0.000   0.000
 -0.000  -0.000   0.000  -0.000   0.000   0.000   0.000  -0.000   0.000   0.000  -0.000  -0.000   0.000  -0.000   0.000   0.000
  0.000  -0.000  -0.000  -0.000   0.000   0.000  -0.000  -0.000  -0.000   0.000   0.000  -0.000  -0.000  -0.000   0.000   0.000
 -0.000  -0.000   0.000  -0.000   0.000   0.000  -0.000   0.000  -0.000  -0.000  -0.000  -0.000   0.000  -0.000   0.000   0.000
 pseudopotential strength for first ion, spin component:           3
 -0.000   0.000  -0.041   0.000   0.000  -0.000  -0.000  -0.041  -0.000   0.000  -0.000   0.000  -0.040   0.000   0.000  -0.000
  0.041   0.000  -0.000   0.000  -0.000  -0.070  -0.000   0.000   0.000  -0.041   0.040   0.000  -0.000   0.000  -0.000  -0.069
  0.000  -0.000  -0.000   0.070  -0.000   0.000   0.070   0.000   0.000  -0.000   0.000  -0.000  -0.000   0.069  -0.000   0.000
 -0.000   0.041  -0.000   0.000  -0.070   0.000  -0.000   0.000   0.041   0.000  -0.000   0.040  -0.000   0.000  -0.069   0.000
 -0.000   0.000   0.000   0.041   0.000  -0.000  -0.041   0.000  -0.000   0.000  -0.000   0.000   0.000   0.040   0.000  -0.000
 -0.000   0.000  -0.040   0.000   0.000  -0.000  -0.000  -0.040  -0.000   0.000  -0.000   0.000  -0.039   0.000   0.000  -0.000
  0.040   0.000  -0.000   0.000  -0.000  -0.069  -0.000   0.000   0.000  -0.040   0.039   0.000  -0.000   0.000  -0.000  -0.068
  0.000  -0.000  -0.000   0.069  -0.000   0.000   0.069   0.000   0.000  -0.000   0.000  -0.000  -0.000   0.068  -0.000   0.000
 -0.000   0.040  -0.000   0.000  -0.069   0.000  -0.000   0.000   0.040   0.000  -0.000   0.039  -0.000   0.000  -0.068   0.000
 -0.000   0.000   0.000   0.040   0.000  -0.000  -0.040   0.000  -0.000   0.000  -0.000   0.000   0.000   0.039   0.000  -0.000
  0.000  -0.000   0.000  -0.000  -0.000   0.000   0.000  -0.000   0.000  -0.000   0.000  -0.000   0.000  -0.000  -0.000   0.000
  0.000  -0.000   0.000  -0.000  -0.000   0.000   0.000  -0.000   0.000  -0.000   0.000  -0.000   0.000  -0.000  -0.000   0.000
 -0.000   0.000   0.000   0.000   0.000  -0.000   0.000   0.000   0.000  -0.000  -0.000   0.000   0.000   0.000   0.000  -0.000
  0.000   0.000  -0.000   0.000   0.000  -0.000  -0.000   0.000  -0.000  -0.000   0.000   0.000  -0.000   0.000   0.000  -0.000
 -0.000   0.000   0.000   0.000   0.000  -0.000  -0.000  -0.000  -0.000   0.000  -0.000   0.000   0.000   0.000   0.000  -0.000
 -0.000   0.000   0.000   0.000   0.000  -0.000   0.000   0.000   0.000  -0.000  -0.000   0.000   0.000   0.000   0.000  -0.000
  0.000   0.000  -0.000   0.000   0.000  -0.000  -0.000   0.000  -0.000  -0.000   0.000   0.000  -0.000   0.000   0.000  -0.000
 -0.000   0.000   0.000   0.000   0.000  -0.000  -0.000  -0.000  -0.000   0.000  -0.000   0.000   0.000   0.000   0.000  -0.000
 pseudopotential strength for first ion, spin component:           4
 -9.437   0.000   0.000   0.000   0.000   0.000  -0.000   0.000   0.000  -0.081  -9.628   0.000   0.000   0.000   0.000   0.000
  0.000   0.000  -9.433   0.000  -0.000   0.000  -0.000  -0.041   0.000   0.000   0.000   0.000  -9.624   0.000  -0.000   0.000
  0.000   0.000  -0.000   0.000  -9.429   0.000   0.000   0.000   0.000   0.000   0.000   0.000  -0.000   0.000  -9.620   0.000
 -0.000   0.000  -0.000   0.041   0.000   0.000  -9.433   0.000   0.000   0.000  -0.000   0.000  -0.000   0.040   0.000   0.000
  0.000   0.081   0.000   0.000   0.000   0.000   0.000   0.000  -9.437   0.000   0.000   0.080   0.000   0.000   0.000   0.000
 -9.628   0.000   0.000   0.000   0.000   0.000  -0.000   0.000   0.000  -0.080  -9.809   0.000   0.000   0.000   0.000   0.000
  0.000   0.000  -9.624   0.000  -0.000   0.000  -0.000  -0.040   0.000   0.000   0.000   0.000  -9.804   0.000  -0.000   0.000
  0.000   0.000  -0.000   0.000  -9.620   0.000   0.000   0.000   0.000   0.000   0.000   0.000  -0.000   0.000  -9.800   0.000
 -0.000   0.000  -0.000   0.040   0.000   0.000  -9.624   0.000   0.000   0.000  -0.000   0.000  -0.000   0.039   0.000   0.000
  0.000   0.080   0.000   0.000   0.000   0.000   0.000   0.000  -9.628   0.000   0.000   0.079   0.000   0.000   0.000   0.000
  0.000   0.000   0.000   0.000  -0.003   0.000  -0.000   0.000   0.000   0.000   0.000   0.000   0.000   0.000  -0.003   0.000
  0.000   0.000   0.000   0.000  -0.006   0.000  -0.000   0.000   0.000   0.000   0.000   0.000   0.000   0.000  -0.006   0.000
  0.000   0.000  -0.000   0.000  -0.000   0.000   0.000   0.000   0.004   0.000   0.000   0.000  -0.000   0.000  -0.000   0.000
  0.000   0.000   0.000   0.000  -0.000   0.000   0.000   0.000  -0.000   0.000   0.000   0.000   0.000   0.000  -0.000   0.000
  0.004   0.000   0.000   0.000  -0.000   0.000  -0.000   0.000   0.000   0.000   0.004   0.000   0.000   0.000  -0.000   0.000
  0.000   0.000  -0.000   0.000  -0.000   0.000   0.000   0.000   0.004   0.000   0.000   0.000  -0.000   0.000  -0.000   0.000
  0.000   0.000   0.000   0.000  -0.000   0.000   0.000   0.000  -0.000   0.000   0.000   0.000   0.000   0.000  -0.000   0.000
  0.004   0.000   0.000   0.000  -0.000   0.000  -0.000   0.000   0.000   0.000   0.005   0.000   0.000   0.000  -0.000   0.000
 total augmentation occupancy for first ion, spin component:           1
  1.000   0.000   0.000   0.000   0.000   0.000   0.000   0.000   0.000   0.000   0.000   0.000   0.000   0.000   0.000   0.000
  0.000   1.000   0.000   0.000   0.000   0.000   0.000   0.000   0.000   0.000   0.000   0.000   0.000   0.000   0.000   0.000
  0.000   0.000   1.000   0.000   0.000   0.000   0.000   0.000   0.000   0.000   0.000   0.000   0.000   0.000   0.000   0.000
  0.000   0.000   0.000   1.000   0.000   0.000   0.000   0.000   0.000   0.000   0.000   0.000   0.000   0.000   0.000   0.000
  0.000   0.000   0.000   0.000   1.000   0.000   0.000   0.000   0.000   0.000   0.000   0.000   0.000   0.000   0.000   0.000
  0.000   0.000   0.000   0.000   0.000   0.000   0.000   0.000   0.000   0.000   0.000   0.000   0.000   0.000   0.000   0.000
  0.000   0.000   0.000   0.000   0.000   0.000   0.000   0.000   0.000   0.000   0.000   0.000   0.000   0.000   0.000   0.000
  0.000   0.000   0.000   0.000   0.000   0.000   0.000   0.000   0.000   0.000   0.000   0.000   0.000   0.000   0.000   0.000
  0.000   0.000   0.000   0.000   0.000   0.000   0.000   0.000   0.000   0.000   0.000   0.000   0.000   0.000   0.000   0.000
  0.000   0.000   0.000   0.000   0.000   0.000   0.000   0.000   0.000   0.000   0.000   0.000   0.000   0.000   0.000   0.000
  0.000   0.000   0.000   0.000   0.000   0.000   0.000   0.000   0.000   0.000   1.000   0.000   0.000   0.000   0.000   0.000
  0.000   0.000   0.000   0.000   0.000   0.000   0.000   0.000   0.000   0.000   0.000   0.000   0.000   0.000   0.000   0.000
  0.000   0.000   0.000   0.000   0.000   0.000   0.000   0.000   0.000   0.000   0.000   0.000   0.000   0.000   0.000   0.000
  0.000   0.000   0.000   0.000   0.000   0.000   0.000   0.000   0.000   0.000   0.000   0.000   0.000   0.000   0.000   0.000
  0.000   0.000   0.000   0.000   0.000   0.000   0.000   0.000   0.000   0.000   0.000   0.000   0.000   0.000   0.000   0.000
  0.000   0.000   0.000   0.000   0.000   0.000   0.000   0.000   0.000   0.000   0.000   0.000   0.000   0.000   0.000   0.000
  0.000   0.000   0.000   0.000   0.000   0.000   0.000   0.000   0.000   0.000   0.000   0.000   0.000   0.000   0.000   0.000
  0.000   0.000   0.000   0.000   0.000   0.000   0.000   0.000   0.000   0.000   0.000   0.000   0.000   0.000   0.000   0.000
 total augmentation occupancy for first ion, spin component:           2
  0.000   0.000   0.000   0.000   0.000   0.000   0.000   0.000   0.000   0.000   0.000   0.000   0.000   0.000   0.000   0.000
  0.000   0.000   0.000   0.000   0.000   0.000   0.000   0.000   0.000   0.000   0.000   0.000   0.000   0.000   0.000   0.000
  0.000   0.000   0.000   0.000   0.000   0.000   0.000   0.000   0.000   0.000   0.000   0.000   0.000   0.000   0.000   0.000
  0.000   0.000   0.000   0.000   0.000   0.000   0.000   0.000   0.000   0.000   0.000   0.000   0.000   0.000   0.000   0.000
  0.000   0.000   0.000   0.000   0.000   0.000   0.000   0.000   0.000   0.000   0.000   0.000   0.000   0.000   0.000   0.000
  0.000   0.000   0.000   0.000   0.000   0.000   0.000   0.000   0.000   0.000   0.000   0.000   0.000   0.000   0.000   0.000
  0.000   0.000   0.000   0.000   0.000   0.000   0.000   0.000   0.000   0.000   0.000   0.000   0.000   0.000   0.000   0.000
  0.000   0.000   0.000   0.000   0.000   0.000   0.000   0.000   0.000   0.000   0.000   0.000   0.000   0.000   0.000   0.000
  0.000   0.000   0.000   0.000   0.000   0.000   0.000   0.000   0.000   0.000   0.000   0.000   0.000   0.000   0.000   0.000
  0.000   0.000   0.000   0.000   0.000   0.000   0.000   0.000   0.000   0.000   0.000   0.000   0.000   0.000   0.000   0.000
  0.000   0.000   0.000   0.000   0.000   0.000   0.000   0.000   0.000   0.000   0.000   0.000   0.000   0.000   0.000   0.000
  0.000   0.000   0.000   0.000   0.000   0.000   0.000   0.000   0.000   0.000   0.000   0.000   0.000   0.000   0.000   0.000
  0.000   0.000   0.000   0.000   0.000   0.000   0.000   0.000   0.000   0.000   0.000   0.000   0.000   0.000   0.000   0.000
  0.000   0.000   0.000   0.000   0.000   0.000   0.000   0.000   0.000   0.000   0.000   0.000   0.000   0.000   0.000   0.000
  0.000   0.000   0.000   0.000   0.000   0.000   0.000   0.000   0.000   0.000   0.000   0.000   0.000   0.000   0.000   0.000
  0.000   0.000   0.000   0.000   0.000   0.000   0.000   0.000   0.000   0.000   0.000   0.000   0.000   0.000   0.000   0.000
  0.000   0.000   0.000   0.000   0.000   0.000   0.000   0.000   0.000   0.000   0.000   0.000   0.000   0.000   0.000   0.000
  0.000   0.000   0.000   0.000   0.000   0.000   0.000   0.000   0.000   0.000   0.000   0.000   0.000   0.000   0.000   0.000
 total augmentation occupancy for first ion, spin component:           3
  0.000   0.000   0.000   0.000   0.000   0.000   0.000   0.000   0.000   0.000   0.000   0.000   0.000   0.000   0.000   0.000
  0.000   0.000   0.000   0.000   0.000   0.000   0.000   0.000   0.000   0.000   0.000   0.000   0.000   0.000   0.000   0.000
  0.000   0.000   0.000   0.000   0.000   0.000   0.000   0.000   0.000   0.000   0.000   0.000   0.000   0.000   0.000   0.000
  0.000   0.000   0.000   0.000   0.000   0.000   0.000   0.000   0.000   0.000   0.000   0.000   0.000   0.000   0.000   0.000
  0.000   0.000   0.000   0.000   0.000   0.000   0.000   0.000   0.000   0.000   0.000   0.000   0.000   0.000   0.000   0.000
  0.000   0.000   0.000   0.000   0.000   0.000   0.000   0.000   0.000   0.000   0.000   0.000   0.000   0.000   0.000   0.000
  0.000   0.000   0.000   0.000   0.000   0.000   0.000   0.000   0.000   0.000   0.000   0.000   0.000   0.000   0.000   0.000
  0.000   0.000   0.000   0.000   0.000   0.000   0.000   0.000   0.000   0.000   0.000   0.000   0.000   0.000   0.000   0.000
  0.000   0.000   0.000   0.000   0.000   0.000   0.000   0.000   0.000   0.000   0.000   0.000   0.000   0.000   0.000   0.000
  0.000   0.000   0.000   0.000   0.000   0.000   0.000   0.000   0.000   0.000   0.000   0.000   0.000   0.000   0.000   0.000
  0.000   0.000   0.000   0.000   0.000   0.000   0.000   0.000   0.000   0.000   0.000   0.000   0.000   0.000   0.000   0.000
  0.000   0.000   0.000   0.000   0.000   0.000   0.000   0.000   0.000   0.000   0.000   0.000   0.000   0.000   0.000   0.000
  0.000   0.000   0.000   0.000   0.000   0.000   0.000   0.000   0.000   0.000   0.000   0.000   0.000   0.000   0.000   0.000
  0.000   0.000   0.000   0.000   0.000   0.000   0.000   0.000   0.000   0.000   0.000   0.000   0.000   0.000   0.000   0.000
  0.000   0.000   0.000   0.000   0.000   0.000   0.000   0.000   0.000   0.000   0.000   0.000   0.000   0.000   0.000   0.000
  0.000   0.000   0.000   0.000   0.000   0.000   0.000   0.000   0.000   0.000   0.000   0.000   0.000   0.000   0.000   0.000
  0.000   0.000   0.000   0.000   0.000   0.000   0.000   0.000   0.000   0.000   0.000   0.000   0.000   0.000   0.000   0.000
  0.000   0.000   0.000   0.000   0.000   0.000   0.000   0.000   0.000   0.000   0.000   0.000   0.000   0.000   0.000   0.000
 total augmentation occupancy for first ion, spin component:           4
  0.000   0.000   0.000   0.000   0.000   0.000   0.000   0.000   0.000   0.000   0.000   0.000   0.000   0.000   0.000   0.000
  0.000   0.000   0.000   0.000   0.000   0.000   0.000   0.000   0.000   0.000   0.000   0.000   0.000   0.000   0.000   0.000
  0.000   0.000   0.000   0.000   0.000   0.000   0.000   0.000   0.000   0.000   0.000   0.000   0.000   0.000   0.000   0.000
  0.000   0.000   0.000   0.000   0.000   0.000   0.000   0.000   0.000   0.000   0.000   0.000   0.000   0.000   0.000   0.000
  0.000   0.000   0.000   0.000   0.000   0.000   0.000   0.000   0.000   0.000   0.000   0.000   0.000   0.000   0.000   0.000
  0.000   0.000   0.000   0.000   0.000   0.000   0.000   0.000   0.000   0.000   0.000   0.000   0.000   0.000   0.000   0.000
  0.000   0.000   0.000   0.000   0.000   0.000   0.000   0.000   0.000   0.000   0.000   0.000   0.000   0.000   0.000   0.000
  0.000   0.000   0.000   0.000   0.000   0.000   0.000   0.000   0.000   0.000   0.000   0.000   0.000   0.000   0.000   0.000
  0.000   0.000   0.000   0.000   0.000   0.000   0.000   0.000   0.000   0.000   0.000   0.000   0.000   0.000   0.000   0.000
  0.000   0.000   0.000   0.000   0.000   0.000   0.000   0.000   0.000   0.000   0.000   0.000   0.000   0.000   0.000   0.000
  0.000   0.000   0.000   0.000   0.000   0.000   0.000   0.000   0.000   0.000   0.000   0.000   0.000   0.000   0.000   0.000
  0.000   0.000   0.000   0.000   0.000   0.000   0.000   0.000   0.000   0.000   0.000   0.000   0.000   0.000   0.000   0.000
  0.000   0.000   0.000   0.000   0.000   0.000   0.000   0.000   0.000   0.000   0.000   0.000   0.000   0.000   0.000   0.000
  0.000   0.000   0.000   0.000   0.000   0.000   0.000   0.000   0.000   0.000   0.000   0.000   0.000   0.000   0.000   0.000
  0.000   0.000   0.000   0.000   0.000   0.000   0.000   0.000   0.000   0.000   0.000   0.000   0.000   0.000   0.000   0.000
  0.000   0.000   0.000   0.000   0.000   0.000   0.000   0.000   0.000   0.000   0.000   0.000   0.000   0.000   0.000   0.000
  0.000   0.000   0.000   0.000   0.000   0.000   0.000   0.000   0.000   0.000   0.000   0.000   0.000   0.000   0.000   0.000
  0.000   0.000   0.000   0.000   0.000   0.000   0.000   0.000   0.000   0.000   0.000   0.000   0.000   0.000   0.000   0.000


------------------------ aborting loop because EDIFF is reached ----------------------------------------


    CHARGE:  cpu time    1.2804: real time    1.2816
    FORLOC:  cpu time    0.0072: real time    0.0072
    FORNL :  cpu time    2.1382: real time    2.1402
    STRESS:  cpu time    2.9684: real time    2.9701
    FORCOR:  cpu time    0.2031: real time    0.2032
    FORHAR:  cpu time    0.0216: real time    0.0216
    OFIELD:  cpu time    0.0012: real time    0.0012

  FORCE on cell =-STRESS in cart. coord.  units (eV):
  Direction    XX          YY          ZZ          XY          YZ          ZX
  --------------------------------------------------------------------------------------
  Alpha Z    22.68957    22.68957    22.68957
  Ewald    1710.32592  1710.32592 -2277.33784    -0.00000     0.00000     0.00000
  Hartree  1848.07291  1848.07288 -1810.59681     0.00003    -0.00000     0.00000
  E(xc)     -70.18094   -70.18094   -70.75519    -0.00000     0.00000    -0.00000
  Local   -3849.41866 -3849.41849  3791.67270    -0.00015     0.00001    -0.00000
  n-local   126.15290   126.15278   131.40393     0.00010    -0.00001     0.00000
  augment   -25.60232   -25.60217   -26.64132    -0.00013    -0.00000    -0.00000
  Kinetic   237.69787   237.69794   237.83044    -0.00006     0.00000     0.00000
  Fock        0.00000     0.00000     0.00000     0.00000     0.00000     0.00000
  -------------------------------------------------------------------------------------
  Total      -0.26274    -0.26250    -1.73453    -0.00021     0.00001     0.00000
  in kB      -3.22142    -3.21852   -21.26686    -0.00261     0.00007     0.00000
  external pressure =       -9.24 kB  Pullay stress =        0.00 kB


 VOLUME and BASIS-vectors are now :
 -----------------------------------------------------------------------------
  energy-cutoff  :      400.00
  volume of cell :      130.67
      direct lattice vectors                 reciprocal lattice vectors
     3.171634303  0.000000000  0.000000000     0.315294862 -0.182035573  0.000000000
     1.585817152  2.746715878  0.000000000     0.000000000  0.364071147  0.000000000
     0.000000000  0.000000000 15.000000000     0.000000000 -0.000000000  0.066666667

  length of vectors
     3.171634303  3.171634303 15.000000000     0.364071147  0.364071147  0.066666667


 FORCES acting on ions
    electron-ion (+dipol)            ewald-force                    non-local-force                 convergence-correction
 -----------------------------------------------------------------------------------------------
   0.689E-04 0.357E-04 0.306E-05   0.241E-11 0.154E-11 0.000E+00   -.869E-06 0.353E-05 0.660E-06   -.665E-04 -.367E-04 -.439E-05
   -.490E-03 -.249E-03 -.480E+03   -.120E-11 -.781E-12 0.485E+03   0.285E-03 0.146E-03 -.502E+01   0.203E-03 0.111E-03 -.141E-02
   -.470E-03 -.268E-03 0.480E+03   -.120E-11 -.759E-12 -.485E+03   0.278E-03 0.163E-03 0.502E+01   0.199E-03 0.114E-03 0.140E-02
 -----------------------------------------------------------------------------------------------
   -.891E-03 -.481E-03 0.492E-05   0.105E-13 -.293E-14 0.000E+00   0.562E-03 0.313E-03 0.109E-04   0.336E-03 0.188E-03 -.122E-04
 
 
 POSITION                                       TOTAL-FORCE (eV/Angst)
 -----------------------------------------------------------------------------------
      0.00000      0.00000      7.50000        -0.000001     -0.000004     -0.000002
      1.58582      0.91557      9.09686        -0.000004      0.000002     -0.536804
      1.58582      0.91557      5.90314         0.000005      0.000002      0.536806
 -----------------------------------------------------------------------------------
    total drift:                                0.000007      0.000020      0.000004


--------------------------------------------------------------------------------------------------------



  FREE ENERGIE OF THE ION-ELECTRON SYSTEM (eV)
  ---------------------------------------------------
  free  energy   TOTEN  =       -21.79522902 eV

  energy  without entropy=      -21.79522902  energy(sigma->0) =      -21.79522902
 


--------------------------------------------------------------------------------------------------------


    POTLOK:  cpu time    0.2082: real time    0.2083


--------------------------------------------------------------------------------------------------------


 writing wavefunctions
     LOOP+:  cpu time  142.4178: real time  142.5626
    4ORBIT:  cpu time    0.0000: real time    0.0000

 Spin-Orbit-Coupling matrix elements

 Ion:    1  E_soc:     -0.0272767
 l=   1
     0.0000000    -0.0020397    -0.0018487
    -0.0020397     0.0000000    -0.0020397
    -0.0018487    -0.0020397     0.0000000
 l=   2
     0.0000000    -0.0004856     0.0000000    -0.0004856    -0.0022277
    -0.0004856     0.0000000    -0.0015653    -0.0004096    -0.0004856
     0.0000000    -0.0015653     0.0000000    -0.0015653     0.0000000
    -0.0004856    -0.0004096    -0.0015653     0.0000000    -0.0004856
    -0.0022277    -0.0004856     0.0000000    -0.0004856     0.0000000
 l=   3
     0.0000000     0.0000000     0.0000000     0.0000000     0.0000000     0.0000000     0.0000000
     0.0000000     0.0000000     0.0000000     0.0000000     0.0000000     0.0000000     0.0000000
     0.0000000     0.0000000     0.0000000     0.0000000     0.0000000     0.0000000     0.0000000
     0.0000000     0.0000000     0.0000000     0.0000000     0.0000000     0.0000000     0.0000000
     0.0000000     0.0000000     0.0000000     0.0000000     0.0000000     0.0000000     0.0000000
     0.0000000     0.0000000     0.0000000     0.0000000     0.0000000     0.0000000     0.0000000
     0.0000000     0.0000000     0.0000000     0.0000000     0.0000000     0.0000000     0.0000000

 Ion:    2  E_soc:     -0.0022644
 l=   1
     0.0000000    -0.0003609    -0.0004105
    -0.0003609     0.0000000    -0.0003609
    -0.0004105    -0.0003609     0.0000000
 l=   2
     0.0000000     0.0000000     0.0000000     0.0000000     0.0000000
     0.0000000     0.0000000     0.0000000     0.0000000     0.0000000
     0.0000000     0.0000000     0.0000000     0.0000000     0.0000000
     0.0000000     0.0000000     0.0000000     0.0000000     0.0000000
     0.0000000     0.0000000     0.0000000     0.0000000     0.0000000
 l=   3
     0.0000000     0.0000000     0.0000000     0.0000000     0.0000000     0.0000000     0.0000000
     0.0000000     0.0000000     0.0000000     0.0000000     0.0000000     0.0000000     0.0000000
     0.0000000     0.0000000     0.0000000     0.0000000     0.0000000     0.0000000     0.0000000
     0.0000000     0.0000000     0.0000000     0.0000000     0.0000000     0.0000000     0.0000000
     0.0000000     0.0000000     0.0000000     0.0000000     0.0000000     0.0000000     0.0000000
     0.0000000     0.0000000     0.0000000     0.0000000     0.0000000     0.0000000     0.0000000
     0.0000000     0.0000000     0.0000000     0.0000000     0.0000000     0.0000000     0.0000000

 Ion:    3  E_soc:     -0.0022644
 l=   1
     0.0000000    -0.0003609    -0.0004105
    -0.0003609     0.0000000    -0.0003609
    -0.0004105    -0.0003609     0.0000000
 l=   2
     0.0000000     0.0000000     0.0000000     0.0000000     0.0000000
     0.0000000     0.0000000     0.0000000     0.0000000     0.0000000
     0.0000000     0.0000000     0.0000000     0.0000000     0.0000000
     0.0000000     0.0000000     0.0000000     0.0000000     0.0000000
     0.0000000     0.0000000     0.0000000     0.0000000     0.0000000
 l=   3
     0.0000000     0.0000000     0.0000000     0.0000000     0.0000000     0.0000000     0.0000000
     0.0000000     0.0000000     0.0000000     0.0000000     0.0000000     0.0000000     0.0000000
     0.0000000     0.0000000     0.0000000     0.0000000     0.0000000     0.0000000     0.0000000
     0.0000000     0.0000000     0.0000000     0.0000000     0.0000000     0.0000000     0.0000000
     0.0000000     0.0000000     0.0000000     0.0000000     0.0000000     0.0000000     0.0000000
     0.0000000     0.0000000     0.0000000     0.0000000     0.0000000     0.0000000     0.0000000
     0.0000000     0.0000000     0.0000000     0.0000000     0.0000000     0.0000000     0.0000000

 total amount of memory used by VASP MPI-rank0   462420. kBytes
=======================================================================

   base      :      30000. kBytes
   nonl-proj :      99398. kBytes
   grid      :      41943. kBytes
   one-center:        186. kBytes
   wavefun   :     290893. kBytes
 
  
  
 General timing and accounting informations for this job:
 ========================================================
  
                  Total CPU time used (sec):      144.190
                            User time (sec):      143.682
                          System time (sec):        0.508
                         Elapsed time (sec):      144.300
  
                   Maximum memory used (kb):   602296320.
                   Average memory used (kb):           0.
  
                          Minor page faults:       148064
                          Major page faults:           12
                 Voluntary context switches:           36
