    6    6    1    1
  0.3484631E+02  0.3171634E-09  0.3171634E-09  0.2400000E-08  0.5000000E-15
  1.000000000000000E-004
  CAR 
 MoS2 1h-bilayer fixed-geometry PBE SOC  
     36     10     96
 
  0.0000000E+00  0.0000000E+00  0.0000000E+00  0.2777778E-01
    1      -14.265206   1.000000
    2      -14.265206   1.000000
    3      -14.209369   1.000000
    4      -14.209369   1.000000
    5      -13.166830   1.000000
    6      -13.166830   1.000000
    7      -13.078274   1.000000
    8      -13.078274   1.000000
    9       -5.924977   1.000000
   10       -5.924977   1.000000
   11       -5.645804   1.000000
   12       -5.645804   1.000000
   13       -2.682404   1.000000
   14       -2.682404   1.000000
   15       -2.678098   1.000000
   16       -2.678098   1.000000
   17       -2.612816   1.000000
   18       -2.612816   1.000000
   19       -2.612061   1.000000
   20       -2.612061   1.000000
   21       -2.456569   1.000000
   22       -2.456569   1.000000
   23       -1.761547   1.000000
   24       -1.761547   1.000000
   25       -1.612670   1.000000
   26       -1.612670   1.000000
   27       -1.606486   1.000000
   28       -1.606486   1.000000
   29       -1.528417   1.000000
   30       -1.528417   1.000000
   31       -1.519363   1.000000
   32       -1.519363   1.000000
   33       -0.549464   1.000000
   34       -0.549464   1.000000
   35       -0.104343   1.000000
   36       -0.104343   1.000000
   37        2.492453   0.000000
   38        2.492453   0.000000
   39        2.527579   0.000000
   40        2.527579   0.000000
   41        2.565163   0.000000
   42        2.565163   0.000000
   43        2.602474   0.000000
   44        2.602474   0.000000
   45        2.689820   0.000000
   46        2.689820   0.000000
   47        2.698599   0.000000
   48        2.698599   0.000000
   49        2.732828   0.000000
   50        2.732828   0.000000
   51        2.740264   0.000000
   52        2.740264   0.000000
   53        5.146538   0.000000
   54        5.146538   0.000000
   55        5.316091   0.000000
   56        5.316091   0.000000
   57        6.102812   0.000000
   58        6.102812   0.000000
   59        6.410287   0.000000
   60        6.410287   0.000000
   61        6.679068   0.000000
   62        6.679068   0.000000
   63        8.020770   0.000000
   64        8.020770   0.000000
   65        8.233638   0.000000
   66        8.233638   0.000000
   67        8.809433   0.000000
   68        8.809433   0.000000
   69        9.003588   0.000000
   70        9.003588   0.000000
   71        9.775458   0.000000
   72        9.775458   0.000000
   73       10.758999   0.000000
   74       10.758999   0.000000
   75       10.837697   0.000000
   76       10.837697   0.000000
   77       10.853446   0.000000
   78       10.853446   0.000000
   79       10.934499   0.000000
   80       10.934499   0.000000
   81       11.441023   0.000000
   82       11.441023   0.000000
   83       12.224106   0.000000
   84       12.224106   0.000000
   85       12.658161   0.000000
   86       12.658161   0.000000
   87       12.681589   0.000000
   88       12.681589   0.000000
   89       12.711813   0.000000
   90       12.711813   0.000000
   91       12.874026   0.000000
   92       12.874026   0.000000
   93       12.888711   0.000000
   94       12.888711   0.000000
   95       14.236114   0.000000
   96       14.236114   0.000000
 
  0.1666667E+00 -0.2775558E-16  0.0000000E+00  0.8333333E-01
    1      -13.884867   1.000000
    2      -13.884867   1.000000
    3      -13.829063   1.000000
    4      -13.829063   1.000000
    5      -12.968177   1.000000
    6      -12.968177   1.000000
    7      -12.886889   1.000000
    8      -12.886889   1.000000
    9       -5.503024   1.000000
   10       -5.503024   1.000000
   11       -5.227864   1.000000
   12       -5.227864   1.000000
   13       -3.445084   1.000000
   14       -3.445084   1.000000
   15       -3.418217   1.000000
   16       -3.418217   1.000000
   17       -3.231206   1.000000
   18       -3.231206   1.000000
   19       -2.957609   1.000000
   20       -2.957609   1.000000
   21       -2.245801   1.000000
   22       -2.245801   1.000000
   23       -2.238336   1.000000
   24       -2.238336   1.000000
   25       -2.121613   1.000000
   26       -2.121613   1.000000
   27       -2.111004   1.000000
   28       -2.111004   1.000000
   29       -1.529648   1.000000
   30       -1.529648   1.000000
   31       -1.164570   1.000000
   32       -1.164570   1.000000
   33       -0.713184   1.000000
   34       -0.713184   1.000000
   35       -0.454177   1.000000
   36       -0.454177   1.000000
   37        1.843917   0.000000
   38        1.843917   0.000000
   39        2.075326   0.000000
   40        2.075326   0.000000
   41        2.286591   0.000000
   42        2.286591   0.000000
   43        2.311638   0.000000
   44        2.311638   0.000000
   45        2.364968   0.000000
   46        2.364968   0.000000
   47        2.460026   0.000000
   48        2.460026   0.000000
   49        3.077428   0.000000
   50        3.077428   0.000000
   51        3.120729   0.000000
   52        3.120729   0.000000
   53        5.722344   0.000000
   54        5.722344   0.000000
   55        5.891691   0.000000
   56        5.891691   0.000000
   57        6.972908   0.000000
   58        6.972908   0.000000
   59        7.613101   0.000000
   60        7.613101   0.000000
   61        7.808555   0.000000
   62        7.808555   0.000000
   63        8.583492   0.000000
   64        8.583492   0.000000
   65        8.708008   0.000000
   66        8.708008   0.000000
   67        9.611959   0.000000
   68        9.611959   0.000000
   69        9.804486   0.000000
   70        9.804486   0.000000
   71        9.882948   0.000000
   72        9.882948   0.000000
   73       10.080724   0.000000
   74       10.080724   0.000000
   75       10.332017   0.000000
   76       10.332017   0.000000
   77       11.241699   0.000000
   78       11.241699   0.000000
   79       11.429030   0.000000
   80       11.429030   0.000000
   81       11.977875   0.000000
   82       11.977875   0.000000
   83       12.012272   0.000000
   84       12.012272   0.000000
   85       12.027226   0.000000
   86       12.027226   0.000000
   87       12.110895   0.000000
   88       12.110895   0.000000
   89       12.605700   0.000000
   90       12.605701   0.000000
   91       12.988246   0.000000
   92       12.988246   0.000000
   93       13.283166   0.000000
   94       13.283166   0.000000
   95       13.768836   0.000000
   96       13.768836   0.000000
 
  0.3333333E+00 -0.2775558E-16  0.0000000E+00  0.8333333E-01
    1      -12.983795   1.000000
    2      -12.983795   1.000000
    3      -12.930100   1.000000
    4      -12.930100   1.000000
    5      -12.509044   1.000000
    6      -12.509044   1.000000
    7      -12.445361   1.000000
    8      -12.445361   1.000000
    9       -5.396000   1.000000
   10       -5.396000   1.000000
   11       -5.304926   1.000000
   12       -5.304926   1.000000
   13       -4.462305   1.000000
   14       -4.462305   1.000000
   15       -4.330897   1.000000
   16       -4.330897   1.000000
   17       -4.183392   1.000000
   18       -4.183392   1.000000
   19       -3.982198   1.000000
   20       -3.982198   1.000000
   21       -2.929393   1.000000
   22       -2.929393   1.000000
   23       -2.916989   1.000000
   24       -2.916989   1.000000
   25       -2.157080   1.000000
   26       -2.157080   1.000000
   27       -1.763525   1.000000
   28       -1.763525   1.000000
   29       -1.437587   1.000000
   30       -1.437587   1.000000
   31       -1.414042   1.000000
   32       -1.414042   1.000000
   33       -1.258293   1.000000
   34       -1.258293   1.000000
   35       -1.129600   1.000000
   36       -1.129600   1.000000
   37        1.854683   0.000000
   38        1.854683   0.000000
   39        1.965068   0.000000
   40        1.965068   0.000000
   41        1.970048   0.000000
   42        1.970048   0.000000
   43        2.142454   0.000000
   44        2.142454   0.000000
   45        2.994243   0.000000
   46        2.994243   0.000000
   47        3.294003   0.000000
   48        3.294003   0.000000
   49        3.705035   0.000000
   50        3.705035   0.000000
   51        3.776163   0.000000
   52        3.776163   0.000000
   53        7.027435   0.000000
   54        7.027435   0.000000
   55        7.161822   0.000000
   56        7.161822   0.000000
   57        7.283358   0.000000
   58        7.283358   0.000000
   59        7.668192   0.000000
   60        7.668192   0.000000
   61        7.782263   0.000000
   62        7.782263   0.000000
   63        8.143155   0.000000
   64        8.143155   0.000000
   65        8.432701   0.000000
   66        8.432701   0.000000
   67        8.886534   0.000000
   68        8.886534   0.000000
   69        8.975220   0.000000
   70        8.975220   0.000000
   71        9.852673   0.000000
   72        9.852673   0.000000
   73       10.131261   0.000000
   74       10.131261   0.000000
   75       10.791328   0.000000
   76       10.791328   0.000000
   77       11.514514   0.000000
   78       11.514514   0.000000
   79       12.088306   0.000000
   80       12.088306   0.000000
   81       12.148882   0.000000
   82       12.148882   0.000000
   83       12.241560   0.000000
   84       12.241560   0.000000
   85       12.502034   0.000000
   86       12.502034   0.000000
   87       12.542445   0.000000
   88       12.542445   0.000000
   89       13.413035   0.000000
   90       13.413035   0.000000
   91       13.979693   0.000000
   92       13.979696   0.000000
   93       14.261697   0.000000
   94       14.262265   0.000000
   95       14.325009   0.000000
   96       14.329173   0.000000
 
  0.5000000E+00 -0.2775558E-16  0.0000000E+00  0.8333333E-01
    1      -12.417674   1.000000
    2      -12.417674   1.000000
    3      -12.366066   1.000000
    4      -12.366066   1.000000
    5      -12.233494   1.000000
    6      -12.233494   1.000000
    7      -12.182315   1.000000
    8      -12.182315   1.000000
    9       -5.971500   1.000000
   10       -5.971500   1.000000
   11       -5.910987   1.000000
   12       -5.910987   1.000000
   13       -5.086460   1.000000
   14       -5.086460   1.000000
   15       -4.988987   1.000000
   16       -4.988987   1.000000
   17       -4.351804   1.000000
   18       -4.351804   1.000000
   19       -4.157131   1.000000
   20       -4.157131   1.000000
   21       -3.249944   1.000000
   22       -3.249944   1.000000
   23       -3.237011   1.000000
   24       -3.237011   1.000000
   25       -2.412969   1.000000
   26       -2.412969   1.000000
   27       -2.025526   1.000000
   28       -2.025526   1.000000
   29       -1.090172   1.000000
   30       -1.090172   1.000000
   31       -1.048087   1.000000
   32       -1.048087   1.000000
   33       -0.959087   1.000000
   34       -0.959087   1.000000
   35       -0.766972   1.000000
   36       -0.766972   1.000000
   37        2.019386   0.000000
   38        2.019386   0.000000
   39        2.028162   0.000000
   40        2.028162   0.000000
   41        2.449424   0.000000
   42        2.449424   0.000000
   43        2.540369   0.000000
   44        2.540369   0.000000
   45        3.447039   0.000000
   46        3.447039   0.000000
   47        3.763473   0.000000
   48        3.763473   0.000000
   49        3.881765   0.000000
   50        3.881765   0.000000
   51        3.969653   0.000000
   52        3.969653   0.000000
   53        5.617557   0.000000
   54        5.617557   0.000000
   55        6.253469   0.000000
   56        6.253469   0.000000
   57        7.521235   0.000000
   58        7.521235   0.000000
   59        7.748239   0.000000
   60        7.748239   0.000000
   61        7.869944   0.000000
   62        7.869944   0.000000
   63        8.347511   0.000000
   64        8.347511   0.000000
   65        8.447313   0.000000
   66        8.447313   0.000000
   67        9.154711   0.000000
   68        9.154711   0.000000
   69        9.427684   0.000000
   70        9.427684   0.000000
   71       10.165692   0.000000
   72       10.165693   0.000000
   73       10.347509   0.000000
   74       10.347509   0.000000
   75       10.713123   0.000000
   76       10.713123   0.000000
   77       11.079454   0.000000
   78       11.079454   0.000000
   79       11.284390   0.000000
   80       11.284390   0.000000
   81       11.402549   0.000000
   82       11.402549   0.000000
   83       11.408227   0.000000
   84       11.408227   0.000000
   85       11.464149   0.000000
   86       11.464149   0.000000
   87       12.096176   0.000000
   88       12.096176   0.000000
   89       12.983558   0.000000
   90       12.983558   0.000000
   91       13.053986   0.000000
   92       13.053986   0.000000
   93       13.805598   0.000000
   94       13.805598   0.000000
   95       14.186500   0.000000
   96       14.186500   0.000000
 
 -0.3333333E+00  0.2775558E-16  0.0000000E+00  0.8333333E-01
    1      -12.983795   1.000000
    2      -12.983795   1.000000
    3      -12.930100   1.000000
    4      -12.930100   1.000000
    5      -12.509044   1.000000
    6      -12.509044   1.000000
    7      -12.445361   1.000000
    8      -12.445361   1.000000
    9       -5.396000   1.000000
   10       -5.396000   1.000000
   11       -5.304926   1.000000
   12       -5.304926   1.000000
   13       -4.462305   1.000000
   14       -4.462305   1.000000
   15       -4.330897   1.000000
   16       -4.330897   1.000000
   17       -4.183392   1.000000
   18       -4.183392   1.000000
   19       -3.982198   1.000000
   20       -3.982198   1.000000
   21       -2.929393   1.000000
   22       -2.929393   1.000000
   23       -2.916989   1.000000
   24       -2.916989   1.000000
   25       -2.157080   1.000000
   26       -2.157080   1.000000
   27       -1.763525   1.000000
   28       -1.763525   1.000000
   29       -1.437587   1.000000
   30       -1.437587   1.000000
   31       -1.414042   1.000000
   32       -1.414042   1.000000
   33       -1.258293   1.000000
   34       -1.258293   1.000000
   35       -1.129600   1.000000
   36       -1.129600   1.000000
   37        1.854683   0.000000
   38        1.854683   0.000000
   39        1.965068   0.000000
   40        1.965068   0.000000
   41        1.970048   0.000000
   42        1.970048   0.000000
   43        2.142454   0.000000
   44        2.142454   0.000000
   45        2.994243   0.000000
   46        2.994243   0.000000
   47        3.294003   0.000000
   48        3.294003   0.000000
   49        3.705035   0.000000
   50        3.705035   0.000000
   51        3.776163   0.000000
   52        3.776163   0.000000
   53        7.027435   0.000000
   54        7.027435   0.000000
   55        7.161822   0.000000
   56        7.161822   0.000000
   57        7.283358   0.000000
   58        7.283358   0.000000
   59        7.668192   0.000000
   60        7.668192   0.000000
   61        7.782263   0.000000
   62        7.782263   0.000000
   63        8.143155   0.000000
   64        8.143155   0.000000
   65        8.432701   0.000000
   66        8.432701   0.000000
   67        8.886534   0.000000
   68        8.886534   0.000000
   69        8.975220   0.000000
   70        8.975220   0.000000
   71        9.852673   0.000000
   72        9.852673   0.000000
   73       10.131261   0.000000
   74       10.131261   0.000000
   75       10.791328   0.000000
   76       10.791328   0.000000
   77       11.514514   0.000000
   78       11.514514   0.000000
   79       12.088306   0.000000
   80       12.088306   0.000000
   81       12.148882   0.000000
   82       12.148882   0.000000
   83       12.241560   0.000000
   84       12.241560   0.000000
   85       12.502034   0.000000
   86       12.502034   0.000000
   87       12.542445   0.000000
   88       12.542445   0.000000
   89       13.413035   0.000000
   90       13.413035   0.000000
   91       13.979689   0.000000
   92       13.979696   0.000000
   93       14.261712   0.000000
   94       14.262036   0.000000
   95       14.324752   0.000000
   96       14.331158   0.000000
 
 -0.1666667E+00  0.2775558E-16  0.0000000E+00  0.8333333E-01
    1      -13.884867   1.000000
    2      -13.884867   1.000000
    3      -13.829063   1.000000
    4      -13.829063   1.000000
    5      -12.968177   1.000000
    6      -12.968177   1.000000
    7      -12.886889   1.000000
    8      -12.886889   1.000000
    9       -5.503024   1.000000
   10       -5.503024   1.000000
   11       -5.227864   1.000000
   12       -5.227864   1.000000
   13       -3.445084   1.000000
   14       -3.445084   1.000000
   15       -3.418217   1.000000
   16       -3.418217   1.000000
   17       -3.231206   1.000000
   18       -3.231206   1.000000
   19       -2.957609   1.000000
   20       -2.957609   1.000000
   21       -2.245801   1.000000
   22       -2.245801   1.000000
   23       -2.238336   1.000000
   24       -2.238336   1.000000
   25       -2.121613   1.000000
   26       -2.121613   1.000000
   27       -2.111004   1.000000
   28       -2.111004   1.000000
   29       -1.529648   1.000000
   30       -1.529648   1.000000
   31       -1.164570   1.000000
   32       -1.164570   1.000000
   33       -0.713184   1.000000
   34       -0.713184   1.000000
   35       -0.454177   1.000000
   36       -0.454177   1.000000
   37        1.843917   0.000000
   38        1.843917   0.000000
   39        2.075326   0.000000
   40        2.075326   0.000000
   41        2.286591   0.000000
   42        2.286591   0.000000
   43        2.311638   0.000000
   44        2.311638   0.000000
   45        2.364968   0.000000
   46        2.364968   0.000000
   47        2.460026   0.000000
   48        2.460026   0.000000
   49        3.077428   0.000000
   50        3.077428   0.000000
   51        3.120729   0.000000
   52        3.120729   0.000000
   53        5.722344   0.000000
   54        5.722344   0.000000
   55        5.891691   0.000000
   56        5.891691   0.000000
   57        6.972908   0.000000
   58        6.972908   0.000000
   59        7.613101   0.000000
   60        7.613101   0.000000
   61        7.808555   0.000000
   62        7.808555   0.000000
   63        8.583492   0.000000
   64        8.583492   0.000000
   65        8.708008   0.000000
   66        8.708008   0.000000
   67        9.611959   0.000000
   68        9.611959   0.000000
   69        9.804486   0.000000
   70        9.804486   0.000000
   71        9.882948   0.000000
   72        9.882948   0.000000
   73       10.080724   0.000000
   74       10.080724   0.000000
   75       10.332017   0.000000
   76       10.332017   0.000000
   77       11.241699   0.000000
   78       11.241699   0.000000
   79       11.429030   0.000000
   80       11.429030   0.000000
   81       11.977875   0.000000
   82       11.977875   0.000000
   83       12.012272   0.000000
   84       12.012272   0.000000
   85       12.027226   0.000000
   86       12.027226   0.000000
   87       12.110895   0.000000
   88       12.110895   0.000000
   89       12.605700   0.000000
   90       12.605700   0.000000
   91       12.988246   0.000000
   92       12.988246   0.000000
   93       13.283166   0.000000
   94       13.283166   0.000000
   95       13.768836   0.000000
   96       13.768836   0.000000
 
  0.3333333E+00  0.1666667E+00  0.0000000E+00  0.1666667E+00
    1      -13.239236   1.000000
    2      -13.232139   1.000000
    3      -13.184706   1.000000
    4      -13.177395   1.000000
    5      -12.631809   1.000000
    6      -12.630820   1.000000
    7      -12.562915   1.000000
    8      -12.561933   1.000000
    9       -5.130976   1.000000
   10       -5.116517   1.000000
   11       -4.969229   1.000000
   12       -4.955021   1.000000
   13       -4.075947   1.000000
   14       -4.071427   1.000000
   15       -3.913349   1.000000
   16       -3.910075   1.000000
   17       -3.855920   1.000000
   18       -3.829346   1.000000
   19       -3.762553   1.000000
   20       -3.735260   1.000000
   21       -3.434534   1.000000
   22       -3.412235   1.000000
   23       -3.283129   1.000000
   24       -3.253672   1.000000
   25       -2.121934   1.000000
   26       -2.096996   1.000000
   27       -2.054166   1.000000
   28       -2.026954   1.000000
   29       -1.503936   1.000000
   30       -1.469412   1.000000
   31       -1.202503   1.000000
   32       -1.177212   1.000000
   33       -1.063488   1.000000
   34       -0.998509   1.000000
   35       -0.971575   1.000000
   36       -0.905411   1.000000
   37        1.424180   0.000000
   38        1.477553   0.000000
   39        1.684682   0.000000
   40        1.758554   0.000000
   41        2.147777   0.000000
   42        2.153533   0.000000
   43        2.234085   0.000000
   44        2.247254   0.000000
   45        2.327977   0.000000
   46        2.374064   0.000000
   47        2.525339   0.000000
   48        2.581025   0.000000
   49        3.742448   0.000000
   50        3.780533   0.000000
   51        3.900873   0.000000
   52        3.935497   0.000000
   53        6.732344   0.000000
   54        6.736421   0.000000
   55        6.872391   0.000000
   56        6.877227   0.000000
   57        7.968740   0.000000
   58        7.972112   0.000000
   59        8.329528   0.000000
   60        8.334038   0.000000
   61        8.397171   0.000000
   62        8.406315   0.000000
   63        8.725775   0.000000
   64        8.749038   0.000000
   65        9.222202   0.000000
   66        9.239915   0.000000
   67        9.593793   0.000000
   68        9.607672   0.000000
   69        9.833824   0.000000
   70        9.846348   0.000000
   71       10.051444   0.000000
   72       10.065356   0.000000
   73       10.082056   0.000000
   74       10.101292   0.000000
   75       10.623885   0.000000
   76       10.639831   0.000000
   77       11.293885   0.000000
   78       11.385717   0.000000
   79       11.458014   0.000000
   80       11.476298   0.000000
   81       11.540925   0.000000
   82       11.541337   0.000000
   83       11.648296   0.000000
   84       11.686133   0.000000
   85       11.891482   0.000000
   86       11.926238   0.000000
   87       11.932087   0.000000
   88       11.947348   0.000000
   89       12.350526   0.000000
   90       12.353477   0.000000
   91       12.656828   0.000000
   92       12.671460   0.000000
   93       12.827981   0.000000
   94       12.839196   0.000000
   95       14.133958   0.000000
   96       14.198770   0.000000
 
  0.5000000E+00  0.1666667E+00  0.0000000E+00  0.1666667E+00
    1      -12.451950   1.000000
    2      -12.433551   1.000000
    3      -12.400639   1.000000
    4      -12.381522   1.000000
    5      -12.224397   1.000000
    6      -12.221713   1.000000
    7      -12.171449   1.000000
    8      -12.169008   1.000000
    9       -5.499080   1.000000
   10       -5.490893   1.000000
   11       -5.439039   1.000000
   12       -5.429610   1.000000
   13       -5.074683   1.000000
   14       -5.066136   1.000000
   15       -5.023328   1.000000
   16       -5.014542   1.000000
   17       -4.140916   1.000000
   18       -4.140527   1.000000
   19       -3.922491   1.000000
   20       -3.920470   1.000000
   21       -3.476397   1.000000
   22       -3.462130   1.000000
   23       -3.350273   1.000000
   24       -3.330847   1.000000
   25       -2.608352   1.000000
   26       -2.561491   1.000000
   27       -2.519292   1.000000
   28       -2.469900   1.000000
   29       -2.177451   1.000000
   30       -2.161520   1.000000
   31       -1.864107   1.000000
   32       -1.856935   1.000000
   33       -0.742894   1.000000
   34       -0.686961   1.000000
   35       -0.637369   1.000000
   36       -0.579174   1.000000
   37        1.861583   0.000000
   38        1.864965   0.000000
   39        2.007208   0.000000
   40        2.034147   0.000000
   41        2.458541   0.000000
   42        2.536683   0.000000
   43        2.551399   0.000000
   44        2.651856   0.000000
   45        2.896538   0.000000
   46        2.906060   0.000000
   47        3.093394   0.000000
   48        3.104389   0.000000
   49        3.972162   0.000000
   50        4.003863   0.000000
   51        4.234318   0.000000
   52        4.267150   0.000000
   53        6.430992   0.000000
   54        6.449305   0.000000
   55        7.082252   0.000000
   56        7.110425   0.000000
   57        8.274789   0.000000
   58        8.279127   0.000000
   59        8.358666   0.000000
   60        8.377012   0.000000
   61        8.532609   0.000000
   62        8.548241   0.000000
   63        9.293927   0.000000
   64        9.309940   0.000000
   65        9.391924   0.000000
   66        9.397155   0.000000
   67        9.448580   0.000000
   68        9.460905   0.000000
   69        9.527829   0.000000
   70        9.586768   0.000000
   71        9.827118   0.000000
   72        9.830328   0.000000
   73       10.415442   0.000000
   74       10.432036   0.000000
   75       10.547276   0.000000
   76       10.552582   0.000000
   77       10.798952   0.000000
   78       10.805580   0.000000
   79       11.083692   0.000000
   80       11.087837   0.000000
   81       11.419270   0.000000
   82       11.426780   0.000000
   83       12.029892   0.000000
   84       12.033780   0.000000
   85       12.726666   0.000000
   86       12.748179   0.000000
   87       12.785598   0.000000
   88       12.786172   0.000000
   89       13.009856   0.000000
   90       13.026571   0.000000
   91       13.120104   0.000000
   92       13.124337   0.000000
   93       13.640438   0.000000
   94       13.647695   0.000000
   95       13.859720   0.000000
   96       13.864294   0.000000
 
 -0.3333333E+00  0.1666667E+00  0.0000000E+00  0.1666667E+00
    1      -12.451950   1.000000
    2      -12.433551   1.000000
    3      -12.400639   1.000000
    4      -12.381522   1.000000
    5      -12.224397   1.000000
    6      -12.221713   1.000000
    7      -12.171449   1.000000
    8      -12.169008   1.000000
    9       -5.499080   1.000000
   10       -5.490893   1.000000
   11       -5.439039   1.000000
   12       -5.429610   1.000000
   13       -5.074683   1.000000
   14       -5.066136   1.000000
   15       -5.023328   1.000000
   16       -5.014542   1.000000
   17       -4.140916   1.000000
   18       -4.140527   1.000000
   19       -3.922491   1.000000
   20       -3.920470   1.000000
   21       -3.476397   1.000000
   22       -3.462130   1.000000
   23       -3.350273   1.000000
   24       -3.330847   1.000000
   25       -2.608352   1.000000
   26       -2.561491   1.000000
   27       -2.519292   1.000000
   28       -2.469900   1.000000
   29       -2.177451   1.000000
   30       -2.161520   1.000000
   31       -1.864107   1.000000
   32       -1.856935   1.000000
   33       -0.742894   1.000000
   34       -0.686961   1.000000
   35       -0.637369   1.000000
   36       -0.579174   1.000000
   37        1.861583   0.000000
   38        1.864965   0.000000
   39        2.007208   0.000000
   40        2.034147   0.000000
   41        2.458541   0.000000
   42        2.536683   0.000000
   43        2.551399   0.000000
   44        2.651856   0.000000
   45        2.896538   0.000000
   46        2.906060   0.000000
   47        3.093394   0.000000
   48        3.104389   0.000000
   49        3.972162   0.000000
   50        4.003863   0.000000
   51        4.234318   0.000000
   52        4.267150   0.000000
   53        6.430992   0.000000
   54        6.449305   0.000000
   55        7.082252   0.000000
   56        7.110425   0.000000
   57        8.274789   0.000000
   58        8.279127   0.000000
   59        8.358666   0.000000
   60        8.377012   0.000000
   61        8.532609   0.000000
   62        8.548241   0.000000
   63        9.293927   0.000000
   64        9.309940   0.000000
   65        9.391924   0.000000
   66        9.397155   0.000000
   67        9.448580   0.000000
   68        9.460905   0.000000
   69        9.527829   0.000000
   70        9.586768   0.000000
   71        9.827118   0.000000
   72        9.830328   0.000000
   73       10.415442   0.000000
   74       10.432036   0.000000
   75       10.547276   0.000000
   76       10.552582   0.000000
   77       10.798952   0.000000
   78       10.805580   0.000000
   79       11.083692   0.000000
   80       11.087837   0.000000
   81       11.419270   0.000000
   82       11.426780   0.000000
   83       12.029892   0.000000
   84       12.033780   0.000000
   85       12.726666   0.000000
   86       12.748179   0.000000
   87       12.785598   0.000000
   88       12.786172   0.000000
   89       13.009856   0.000000
   90       13.026571   0.000000
   91       13.120104   0.000000
   92       13.124337   0.000000
   93       13.640439   0.000000
   94       13.647696   0.000000
   95       13.859724   0.000000
   96       13.864286   0.000000
 
 -0.3333333E+00  0.3333333E+00  0.0000000E+00  0.5555556E-01
    1      -12.172099   1.000000
    2      -12.143388   1.000000
    3      -12.121122   1.000000
    4      -12.090431   1.000000
    5      -12.052192   1.000000
    6      -12.046363   1.000000
    7      -12.005847   1.000000
    8      -12.001267   1.000000
    9       -5.547732   1.000000
   10       -5.540400   1.000000
   11       -5.516885   1.000000
   12       -5.509992   1.000000
   13       -4.813907   1.000000
   14       -4.778767   1.000000
   15       -4.761361   1.000000
   16       -4.726036   1.000000
   17       -4.292055   1.000000
   18       -4.261492   1.000000
   19       -4.242236   1.000000
   20       -4.210226   1.000000
   21       -3.904190   1.000000
   22       -3.894439   1.000000
   23       -3.633804   1.000000
   24       -3.627609   1.000000
   25       -3.217295   1.000000
   26       -3.168536   1.000000
   27       -3.125094   1.000000
   28       -3.075639   1.000000
   29       -2.652331   1.000000
   30       -2.630316   1.000000
   31       -2.301640   1.000000
   32       -2.276988   1.000000
   33       -0.298265   1.000000
   34       -0.263101   1.000000
   35       -0.153027   1.000000
   36       -0.114866   1.000000
   37        1.542003   0.000000
   38        1.544395   0.000000
   39        1.548863   0.000000
   40        1.550494   0.000000
   41        2.500567   0.000000
   42        2.532615   0.000000
   43        2.749187   0.000000
   44        2.772734   0.000000
   45        3.019322   0.000000
   46        3.153580   0.000000
   47        3.256496   0.000000
   48        3.399460   0.000000
   49        4.436166   0.000000
   50        4.516557   0.000000
   51        4.662884   0.000000
   52        4.741100   0.000000
   53        6.704374   0.000000
   54        6.813393   0.000000
   55        6.881781   0.000000
   56        6.883125   0.000000
   57        7.275493   0.000000
   58        7.400698   0.000000
   59        7.676763   0.000000
   60        7.681550   0.000000
   61        9.044571   0.000000
   62        9.053036   0.000000
   63       10.120852   0.000000
   64       10.174093   0.000000
   65       10.382969   0.000000
   66       10.386532   0.000000
   67       10.725422   0.000000
   68       10.740144   0.000000
   69       10.745221   0.000000
   70       10.775745   0.000000
   71       11.210040   0.000000
   72       11.210298   0.000000
   73       11.555811   0.000000
   74       11.577466   0.000000
   75       11.719689   0.000000
   76       11.725064   0.000000
   77       11.746879   0.000000
   78       11.765522   0.000000
   79       11.789226   0.000000
   80       11.808942   0.000000
   81       11.903705   0.000000
   82       11.919543   0.000000
   83       12.513697   0.000000
   84       12.524610   0.000000
   85       12.560937   0.000000
   86       12.571385   0.000000
   87       12.577588   0.000000
   88       12.594572   0.000000
   89       12.618480   0.000000
   90       12.657141   0.000000
   91       12.859375   0.000000
   92       12.870814   0.000000
   93       12.871078   0.000000
   94       12.874799   0.000000
   95       13.061407   0.000000
   96       13.084677   0.000000
