       N       E                     dE             d eps       ncg     rms          rms(c)
DAV:   1     0.177062349924E+03    0.17706E+03   -0.11400E+04  1936   0.496E+02
DAV:   2    -0.297450816526E+02   -0.20681E+03   -0.19241E+03  2384   0.142E+02
DAV:   3    -0.464057016609E+02   -0.16661E+02   -0.16304E+02  2320   0.383E+01
DAV:   4    -0.467462779790E+02   -0.34058E+00   -0.34017E+00  2384   0.612E+00
DAV:   5    -0.467566277379E+02   -0.10350E-01   -0.10349E-01  2504   0.103E+00    0.341E+01
DAV:   6    -0.444764384648E+02    0.22802E+01   -0.36854E+00  2328   0.107E+01    0.119E+01
DAV:   7    -0.441373919937E+02    0.33905E+00   -0.19831E+00  2200   0.101E+01    0.103E+01
DAV:   8    -0.435614575887E+02    0.57593E+00   -0.33545E-01  2360   0.402E+00    0.145E+00
DAV:   9    -0.435658832538E+02   -0.44257E-02   -0.13691E-01  2296   0.144E+00    0.477E-01
DAV:  10    -0.435632426733E+02    0.26406E-02   -0.27743E-03  2288   0.230E-01    0.226E-01
DAV:  11    -0.435626900507E+02    0.55262E-03   -0.15722E-03  2248   0.146E-01    0.176E-01
DAV:  12    -0.435625479194E+02    0.14213E-03   -0.47345E-04  2240   0.782E-02    0.782E-02
DAV:  13    -0.435625212703E+02    0.26649E-04   -0.61026E-05  2216   0.300E-02    0.688E-02
DAV:  14    -0.435624927853E+02    0.28485E-04   -0.17636E-05  2232   0.161E-02    0.399E-02
DAV:  15    -0.435625055620E+02   -0.12777E-04   -0.30640E-05  2216   0.181E-02    0.151E-02
DAV:  16    -0.435625703989E+02   -0.64837E-04   -0.73272E-06  2040   0.870E-03    0.108E-02
DAV:  17    -0.435625974305E+02   -0.27032E-04   -0.41109E-06  2120   0.537E-03    0.126E-02
DAV:  18    -0.435626357864E+02   -0.38356E-04   -0.18896E-06  2208   0.399E-03    0.346E-03
DAV:  19    -0.435626609422E+02   -0.25156E-04   -0.16007E-06  2232   0.325E-03    0.715E-03
DAV:  20    -0.435626801242E+02   -0.19182E-04   -0.24160E-07  2032   0.147E-03    0.283E-03
DAV:  21    -0.435627072038E+02   -0.27080E-04   -0.46650E-07  2056   0.174E-03    0.202E-03
DAV:  22    -0.435627173056E+02   -0.10102E-04   -0.17193E-07  2024   0.103E-03    0.161E-03
DAV:  23    -0.435627201491E+02   -0.28435E-05   -0.39833E-08  1792   0.525E-04    0.701E-04
DAV:  24    -0.435627209336E+02   -0.78451E-06   -0.64204E-09  1856   0.238E-04    0.464E-04
DAV:  25    -0.435627210247E+02   -0.91014E-07    0.24268E-10  1704   0.712E-05
   1 F= -.43562721E+02 E0= -.43562721E+02  d E =-.847806E-28  mag=     0.0000     0.0000     0.0000
