Bi buckled honeycomb layer             
   1.00000000000000     
     4.3888421599896201    0.0000000000000000    0.0000000000000000
     2.1944210799948101    3.8008488037511787    0.0000000000000000
     0.0000000000000000    0.0000000000000000   15.0000000000000000
   Bi
     2
Selective dynamics
Direct
  0.1666666666666643  0.1666666666666643  0.0579618666614847   F   F   T
  0.8333333333333357  0.8333333333333357  0.9420381333385153   F   F   T
 
  0.00000000E+00  0.00000000E+00  0.00000000E+00
  0.00000000E+00  0.00000000E+00  0.00000000E+00
