 SYSTEM= PdTe2 Hyun-Jung Kim. 
# 
   PREC    =         N      ! determines the energy cutoff ENCUT, |L|M|N|A|H|
   ISTART  =         0      ! job   : 0-new 1-cont 2-samecut
   ICHARG  =         2      ! charge: 0-wave 1-file 2-atom 10-const
#  ISPIN   =         2      ! | 1-non spin polarized | 2-spin polarized |
   MAGMOM  =  0 0 0  0 0 0  0 0 0  
   ENCUT   =         400.   ! cut-off energy for plane wave basis set in eV 
   NELM    =        200     ! maximum number of electronic SC (selconsistency)
#  NELMDL  =        -6      ! number of non-selconsistency SC steps
   EDIFF   =       1E-06    ! specifies the global break condition for the electronic
#  LREAL   =        .FALSE. ! real space projection .FALSE. or Auto
#  IALGO   =         48     ! select algorithm (8=CG for small, 48=RMM for big systems)
#  NSW     =       500      ! maximum number of ionic steps
#  IBRION  =         2      ! how to ions are updated and moved
#  EDIFFG  =       -.2E-02  ! break conditions for the ionic relaxation loop
#  ISIF    =         3      ! controls whether the stress tensor is alculated
   ISYM    =        -1      ! switch symmetry on (1,2,3) or off (-1,0)
   KPAR    =         2
 DOS related values:
   ISMEAR  =         0      ! for semiconductor or insulators ISMEAR=-5, SIGMA=0.05 
   SIGMA   =         0.02   ! for metal ISMEAR=1 or =2 SIGMA=0.2
# EMIN   = -10
# EMAX   =  10
# NEDOS  = 20000
# LORBIT = 11
# LORBMOM = .TRUE.
 Write flags
   LWAVE   =        .TRUE.  ! These tags determine whether the orbitals (file WAVECAR),
   LCHARG  =        .FALSE. ! the charge densities (files CHGCAR and CHG) are written
   LVTOT   =        .FALSE. ! 
   LVHAR   =        .FALSE. ! electrostatic potential (LOCPOT)
 Non-colinear calculations and spin orbit coupling
   LSORBIT =        .TRUE.  ! switch on SOC and automatically set LNONCOLLINEAR=.TRUE.
   SAXIS   =         0 0 1  ! quantisation axis for spin
   GGA_COMPAT =     .FALSE. ! apply spherical cutoff on gradient field

#  IVDW    =  11
