PdTe2                                   
   1.00000000000000     
     3.1716343032172727    0.0000000000000000    0.0000000000000000
     1.5858171516086363    2.7467158781003151    0.0000000000000001
     0.0000000000000000    0.0000000000000000   15.0000000000000000
   Mo   S 
     1     2
Selective dynamics
Direct
  0.0000000000000000  0.0000000000000000  0.5000000000000000   F   F   F
  0.3333333333333333  0.3333333333333333  0.6064573703372080   F   F   T
  0.3333333333333333  0.3333333333333333  0.3935426296627920   F   F   T
