       N       E                     dE             d eps       ncg     rms          rms(c)
DAV:   1    -0.905460567233E+02   -0.90546E+02   -0.39496E-04   912   0.707E-02    0.181E-02
DAV:   2    -0.905459835646E+02    0.73159E-04   -0.30303E-04   912   0.689E-02    0.146E-02
DAV:   3    -0.905459722684E+02    0.11296E-04   -0.79468E-05   904   0.475E-02    0.999E-03
DAV:   4    -0.905459661047E+02    0.61637E-05   -0.73753E-05   872   0.388E-02
   1 F= -.96610217E+02 E0= -.96609001E+02  d E =-.243223E-02  mag=     0.0000    -0.0000     5.0581
