SYSTEM = MnBi2Te4 uniform-mesh NSCF optical reference
ISTART = 0
ICHARG = 11
ENCUT = 270
PREC = Normal
EDIFF = 1E-7
NELM = 100
NBANDS = 192
ALGO = Normal
LREAL = .FALSE.
LASPH = .TRUE.
ISMEAR = 0
SIGMA = 0.03
ISYM = -1
LSORBIT = .TRUE.
SAXIS = 0 0 1
MAGMOM = 0 0 5 0 0 -5 0 0 5 0 0 0 0 0 0 0 0 0 0 0 0 0 0 0 0 0 0 0 0 0 0 0 0 0 0 0 0 0 0 0 0 0 0 0 0 0 0 0 0 0 0 0 0 0 0 0 0 0 0 0 0 0 0
GGA_COMPAT = .FALSE.
LDAU = .TRUE.
LDAUTYPE = 2
LDAUL = 2 -1 -1
LDAUU = 5.34 0 0
LDAUJ = 0 0 0
LMAXMIX = 4
IVDW = 11
NSW = 0
IBRION = -1
LWAVE = .TRUE.
LCHARG = .FALSE.
LORBIT = 11
AMIX = 0.1
BMIX = 0.0001
AMIN = 0.01
AMIX_MAG = 0.4
BMIX_MAG = 0.0001
NELMIN = 16
LOPTICS = .TRUE.
LPEAD = .FALSE.
LNABLA = .FALSE.
