MnBi2Te4 3SL ABC AFM, bulk-derived Yan2019 TableI 10K; a=Otrokov2019; unrelaxed
1.0
4.336000000000 0 0
-2.168000000000 3.755086150809 0
0 0 52.891132533333
Mn Bi Te
3 6 12
Direct
0.000000000000 0.000000000000 0.243630623562
0.666666666667 0.333333333333 0.500000000000
0.333333333333 0.666666666667 0.756369376438
0.666666666667 0.333333333333 0.173359777480
0.333333333333 0.666666666667 0.313901469644
0.333333333333 0.666666666667 0.429729153918
0.000000000000 0.000000000000 0.570270846082
0.000000000000 0.000000000000 0.686098530356
0.666666666667 0.333333333333 0.826640222520
0.000000000000 0.000000000000 0.141800707241
0.333333333333 0.666666666667 0.213609769581
0.666666666667 0.333333333333 0.273651477543
0.000000000000 0.000000000000 0.345460539883
0.666666666667 0.333333333333 0.398170083679
0.000000000000 0.000000000000 0.469979146019
0.333333333333 0.666666666667 0.530020853981
0.666666666667 0.333333333333 0.601829916321
0.333333333333 0.666666666667 0.654539460117
0.666666666667 0.333333333333 0.726348522457
0.000000000000 0.000000000000 0.786390230419
0.333333333333 0.666666666667 0.858199292759
