       N       E                     dE             d eps       ncg     rms          rms(c)
DAV:   1     0.190437582142E+03    0.19044E+03   -0.11967E+04  6400   0.735E+02
DAV:   2    -0.220078992232E+02   -0.21245E+03   -0.19658E+03  8200   0.188E+02
DAV:   3    -0.420469088708E+02   -0.20039E+02   -0.19469E+02  7600   0.566E+01
DAV:   4    -0.425785383960E+02   -0.53163E+00   -0.52915E+00  7936   0.104E+01
DAV:   5    -0.425925290070E+02   -0.13991E-01   -0.13986E-01  7680   0.166E+00
DAV:   6    -0.425931302465E+02   -0.60124E-03   -0.60119E-03  8104   0.347E-01
DAV:   7    -0.425931560626E+02   -0.25816E-04   -0.25815E-04  7776   0.668E-02
DAV:   8    -0.425931574258E+02   -0.13632E-05   -0.13631E-05  8152   0.151E-02
DAV:   9    -0.425931574975E+02   -0.71663E-07   -0.71585E-07  7480   0.322E-03
DAV:  10    -0.425931575017E+02   -0.42025E-08   -0.41454E-08  6672   0.775E-04
   1 F= -.42593158E+02 E0= -.42593158E+02  d E =-.556928E-11  mag=     0.0000     0.0000     0.0000
 imaginary and real dielectric function
