Numerical source excerpts: parameter lines, convergence and completion footer.

 vasp.5.4.4.18Apr17-6-g9f103f2a35 (build Sep 13 2026 16:50:19) complex          
   k-points           NKPTS =     49   k-points in BZ     NKDIM =     49   number of bands    NBANDS=     64
   LSORBIT =      T    spin-orbit coupling
   NELECT =      36.0000    total number of electrons
   LDIPOL =      F    correct potential (dipole corrections)
   IDIPOL =      0    1-x, 2-y, 3-z, 4-all directions 
------------------------ aborting loop because EDIFF is reached ----------------------------------------

General timing and accounting informations for this job:
 ========================================================
  
                  Total CPU time used (sec):     1711.118
                            User time (sec):     1706.141
                          System time (sec):        4.977
                         Elapsed time (sec):     1713.981
  
                   Maximum memory used (kb):  1912987648.
                   Average memory used (kb):           0.
  
                          Minor page faults:       468013
                          Major page faults:           58
                 Voluntary context switches:           76
