       N       E                     dE             d eps       ncg     rms          rms(c)
DAV:   1     0.457113870422E+02    0.45711E+02   -0.22570E+03  5184   0.589E+02
DAV:   2    -0.206235994173E+01   -0.47774E+02   -0.45846E+02  7510   0.100E+02
DAV:   3    -0.838548345899E+01   -0.63231E+01   -0.62661E+01  7120   0.436E+01
DAV:   4    -0.872597677422E+01   -0.34049E+00   -0.34023E+00  7574   0.103E+01
DAV:   5    -0.872957584549E+01   -0.35991E-02   -0.35990E-02  7616   0.143E+00
DAV:   6    -0.872968898547E+01   -0.11314E-03   -0.11314E-03  7624   0.173E-01
DAV:   7    -0.872969054495E+01   -0.15595E-05   -0.15595E-05  7338   0.252E-02
DAV:   8    -0.872969060929E+01   -0.64339E-07   -0.64340E-07  6130   0.358E-03
   1 F= -.87296906E+01 E0= -.87296906E+01  d E =-.114785E-11  mag=     0.0000     0.0000     0.0000
