 vasp.5.4.1 24Jun15 (build Feb 01 2016 10:51:08) complex                        
  
 executed on           IFC91_ompi date 2016.06.16  13:24:42
 running on    4 total cores
 distrk:  each k-point on    1 cores,    4 groups
 distr:  one band on NCORES_PER_BAND=   1 cores,    1 groups


--------------------------------------------------------------------------------------------------------


 INCAR:
 POTCAR:    PAW_PBE Bi 08Apr2002                  

 ----------------------------------------------------------------------------- 
|                                                                             |
|           W    W    AA    RRRRR   N    N  II  N    N   GGGG   !!!           |
|           W    W   A  A   R    R  NN   N  II  NN   N  G    G  !!!           |
|           W    W  A    A  R    R  N N  N  II  N N  N  G       !!!           |
|           W WW W  AAAAAA  RRRRR   N  N N  II  N  N N  G  GGG   !            |
|           WW  WW  A    A  R   R   N   NN  II  N   NN  G    G                |
|           W    W  A    A  R    R  N    N  II  N    N   GGGG   !!!           |
|                                                                             |
|      You have enabled k-point parallelism (KPAR>1).                         |
|      This developmental code was originally  written by Paul Kent at ORNL,  |
|      and carefully double checked in Vienna.                                |
|      GW as well as linear response parallelism added by Martijn Marsman     |
|      and Georg Kresse.                                                      |
|      Carefully verify results versus KPAR=1.                                |
|      Report problems to Paul Kent and Vienna.                               |
|                                                                             |
 ----------------------------------------------------------------------------- 

 POTCAR:    PAW_PBE Bi 08Apr2002                  
   VRHFIN =Bi:                                                                  
   LEXCH  = PE                                                                  
   EATOM  =   150.8133 eV,   11.0845 Ry                                         
                                                                                
   TITEL  = PAW_PBE Bi 08Apr2002                                                
   LULTRA =        F    use ultrasoft PP ?                                      
   IUNSCR =        1    unscreen: 0-lin 1-nonlin 2-no                           
   RPACOR =    2.200    partial core radius                                     
   POMASS =  208.980; ZVAL   =    5.000    mass and valenz                      
   RCORE  =    3.000    outmost cutoff radius                                   
   RWIGS  =    3.090; RWIGS  =    1.635    wigner-seitz radius (au A)           
   ENMAX  =  105.037; ENMIN  =   78.777 eV                                      
   ICORE  =        3    local potential                                         
   LCOR   =        T    correct aug charges                                     
   LPAW   =        T    paw PP                                                  
   EAUG   =  265.427                                                            
   DEXC   =    0.000                                                            
   RMAX   =    3.067    core radius for proj-oper                               
   RAUG   =    1.300    factor for augmentation sphere                          
   RDEP   =    3.012    radius for radial grids                                 
   RDEPT  =    2.604    core radius for aug-charge                              
                                                                                
   Atomic configuration                                                         
   17 entries                                                                   
     n  l   j            E        occ.                                          
     1  0  0.50    -90639.6582   2.0000                                         
     2  0  0.50    -16282.4667   2.0000                                         
     2  1  1.50    -13922.8287   6.0000                                         
     3  0  0.50     -3930.4763   2.0000                                         
     3  1  1.50     -3256.7013   6.0000                                         
     3  2  2.50     -2581.6169  10.0000                                         
     4  0  0.50      -902.2614   2.0000                                         
     4  1  1.50      -681.5915   6.0000                                         
     4  2  2.50      -429.8249  10.0000                                         
     4  3  3.50      -152.6004  14.0000                                         
     5  0  0.50      -157.7156   2.0000                                         
     5  1  1.50       -95.8054   6.0000                                         
     5  2  2.50       -27.0806  10.0000                                         
     6  0  0.50       -14.4732   2.0000                                         
     6  1  1.50        -4.5702   3.0000                                         
     6  2  2.50        -2.7212   0.0000                                         
     5  3  2.50        -2.7212   0.0000                                         
   Description                                                                  
     l       E           TYP  RCUT    TYP  RCUT                                 
     0    -14.4732299     23  3.000                                             
     0    -12.2452434     23  3.000                                             
     1     -4.5701666     23  3.000                                             
     1    -13.6058260     23  3.000                                             
     2     -2.7211652     23  3.000                                             
     3     -1.3605826      7  3.000                                             
  local pseudopotential read in
  partial core-charges read in
  partial kinetic energy density read in
  kinetic energy density of atom read in
  atomic valenz-charges read in
  non local Contribution for L=           0  read in
    real space projection operators read in
  non local Contribution for L=           0  read in
    real space projection operators read in
  non local Contribution for L=           1  read in
    real space projection operators read in
  non local Contribution for L=           1  read in
    real space projection operators read in
  non local Contribution for L=           2  read in
    real space projection operators read in
    PAW grid and wavefunctions read in
 
   number of l-projection  operators is LMAX  =           5
   number of lm-projection operators is LMMAX =          13
 
  PAW_PBE Bi 08Apr2002                  :
 energy of atom  1       EATOM= -150.8133
 kinetic energy error for atom=    0.0001 (will be added to EATOM!!)
 
 
 POSCAR: Bi-nanoribbon                           
  positions in direct lattice
  velocities in cartesian coordinates
 exchange correlation table for  LEXCH =        8
   RHO(1)=    0.500       N(1)  =     2000
   RHO(2)=  100.500       N(2)  =     4000
 


--------------------------------------------------------------------------------------------------------


 ion  position               nearest neighbor table
   1  0.167  0.167  0.058-   2 3.07   2 3.07   2 3.07
   2  0.833  0.833  0.942-   1 3.07   1 3.07   1 3.07
 

IMPORTANT INFORMATION: All symmetrisations will be switched off!
NOSYMM: (Re-)initialisation of all symmetry stuff for point group C_1.

 
 
 KPOINTS: Automatic mesh                          

Automatic generation of k-mesh.
Space group operators:
 irot       det(A)        alpha          n_x          n_y          n_z        tau_x        tau_y        tau_z
    1     1.000000     0.000000     1.000000     0.000000     0.000000     0.000000     0.000000     0.000000
 
 Subroutine IBZKPT returns following result:
 ===========================================
 
 Found    144 irreducible k-points:
 
 Following reciprocal coordinates:
            Coordinates               Weight
  0.000000  0.000000  0.000000      1.000000
  0.083333  0.000000  0.000000      1.000000
  0.166667  0.000000  0.000000      1.000000
  0.250000  0.000000  0.000000      1.000000
  0.333333  0.000000  0.000000      1.000000
  0.416667  0.000000  0.000000      1.000000
  0.500000  0.000000  0.000000      1.000000
 -0.416667  0.000000  0.000000      1.000000
 -0.333333  0.000000  0.000000      1.000000
 -0.250000  0.000000  0.000000      1.000000
 -0.166667  0.000000  0.000000      1.000000
 -0.083333  0.000000  0.000000      1.000000
  0.000000  0.083333  0.000000      1.000000
  0.083333  0.083333  0.000000      1.000000
  0.166667  0.083333  0.000000      1.000000
  0.250000  0.083333  0.000000      1.000000
  0.333333  0.083333  0.000000      1.000000
  0.416667  0.083333  0.000000      1.000000
  0.500000  0.083333  0.000000      1.000000
 -0.416667  0.083333  0.000000      1.000000
 -0.333333  0.083333  0.000000      1.000000
 -0.250000  0.083333  0.000000      1.000000
 -0.166667  0.083333  0.000000      1.000000
 -0.083333  0.083333  0.000000      1.000000
  0.000000  0.166667  0.000000      1.000000
  0.083333  0.166667  0.000000      1.000000
  0.166667  0.166667  0.000000      1.000000
  0.250000  0.166667  0.000000      1.000000
  0.333333  0.166667  0.000000      1.000000
  0.416667  0.166667  0.000000      1.000000
  0.500000  0.166667  0.000000      1.000000
 -0.416667  0.166667  0.000000      1.000000
 -0.333333  0.166667  0.000000      1.000000
 -0.250000  0.166667  0.000000      1.000000
 -0.166667  0.166667  0.000000      1.000000
 -0.083333  0.166667  0.000000      1.000000
  0.000000  0.250000  0.000000      1.000000
  0.083333  0.250000  0.000000      1.000000
  0.166667  0.250000  0.000000      1.000000
  0.250000  0.250000  0.000000      1.000000
  0.333333  0.250000  0.000000      1.000000
  0.416667  0.250000  0.000000      1.000000
  0.500000  0.250000  0.000000      1.000000
 -0.416667  0.250000  0.000000      1.000000
 -0.333333  0.250000  0.000000      1.000000
 -0.250000  0.250000  0.000000      1.000000
 -0.166667  0.250000  0.000000      1.000000
 -0.083333  0.250000  0.000000      1.000000
  0.000000  0.333333  0.000000      1.000000
  0.083333  0.333333  0.000000      1.000000
  0.166667  0.333333  0.000000      1.000000
  0.250000  0.333333  0.000000      1.000000
  0.333333  0.333333  0.000000      1.000000
  0.416667  0.333333  0.000000      1.000000
  0.500000  0.333333  0.000000      1.000000
 -0.416667  0.333333  0.000000      1.000000
 -0.333333  0.333333  0.000000      1.000000
 -0.250000  0.333333  0.000000      1.000000
 -0.166667  0.333333  0.000000      1.000000
 -0.083333  0.333333  0.000000      1.000000
  0.000000  0.416667  0.000000      1.000000
  0.083333  0.416667  0.000000      1.000000
  0.166667  0.416667  0.000000      1.000000
  0.250000  0.416667  0.000000      1.000000
  0.333333  0.416667  0.000000      1.000000
  0.416667  0.416667  0.000000      1.000000
  0.500000  0.416667  0.000000      1.000000
 -0.416667  0.416667  0.000000      1.000000
 -0.333333  0.416667  0.000000      1.000000
 -0.250000  0.416667  0.000000      1.000000
 -0.166667  0.416667  0.000000      1.000000
 -0.083333  0.416667  0.000000      1.000000
  0.000000  0.500000  0.000000      1.000000
  0.083333  0.500000  0.000000      1.000000
  0.166667  0.500000  0.000000      1.000000
  0.250000  0.500000  0.000000      1.000000
  0.333333  0.500000  0.000000      1.000000
  0.416667  0.500000  0.000000      1.000000
  0.500000  0.500000  0.000000      1.000000
 -0.416667  0.500000  0.000000      1.000000
 -0.333333  0.500000  0.000000      1.000000
 -0.250000  0.500000  0.000000      1.000000
 -0.166667  0.500000  0.000000      1.000000
 -0.083333  0.500000  0.000000      1.000000
  0.000000 -0.416667  0.000000      1.000000
  0.083333 -0.416667  0.000000      1.000000
  0.166667 -0.416667  0.000000      1.000000
  0.250000 -0.416667  0.000000      1.000000
  0.333333 -0.416667  0.000000      1.000000
  0.416667 -0.416667  0.000000      1.000000
  0.500000 -0.416667  0.000000      1.000000
 -0.416667 -0.416667  0.000000      1.000000
 -0.333333 -0.416667  0.000000      1.000000
 -0.250000 -0.416667  0.000000      1.000000
 -0.166667 -0.416667  0.000000      1.000000
 -0.083333 -0.416667  0.000000      1.000000
  0.000000 -0.333333  0.000000      1.000000
  0.083333 -0.333333  0.000000      1.000000
  0.166667 -0.333333  0.000000      1.000000
  0.250000 -0.333333  0.000000      1.000000
  0.333333 -0.333333  0.000000      1.000000
  0.416667 -0.333333  0.000000      1.000000
  0.500000 -0.333333  0.000000      1.000000
 -0.416667 -0.333333  0.000000      1.000000
 -0.333333 -0.333333  0.000000      1.000000
 -0.250000 -0.333333  0.000000      1.000000
 -0.166667 -0.333333  0.000000      1.000000
 -0.083333 -0.333333  0.000000      1.000000
  0.000000 -0.250000  0.000000      1.000000
  0.083333 -0.250000  0.000000      1.000000
  0.166667 -0.250000  0.000000      1.000000
  0.250000 -0.250000  0.000000      1.000000
  0.333333 -0.250000  0.000000      1.000000
  0.416667 -0.250000  0.000000      1.000000
  0.500000 -0.250000  0.000000      1.000000
 -0.416667 -0.250000  0.000000      1.000000
 -0.333333 -0.250000  0.000000      1.000000
 -0.250000 -0.250000  0.000000      1.000000
 -0.166667 -0.250000  0.000000      1.000000
 -0.083333 -0.250000  0.000000      1.000000
  0.000000 -0.166667  0.000000      1.000000
  0.083333 -0.166667  0.000000      1.000000
  0.166667 -0.166667  0.000000      1.000000
  0.250000 -0.166667  0.000000      1.000000
  0.333333 -0.166667  0.000000      1.000000
  0.416667 -0.166667  0.000000      1.000000
  0.500000 -0.166667  0.000000      1.000000
 -0.416667 -0.166667  0.000000      1.000000
 -0.333333 -0.166667  0.000000      1.000000
 -0.250000 -0.166667  0.000000      1.000000
 -0.166667 -0.166667  0.000000      1.000000
 -0.083333 -0.166667  0.000000      1.000000
  0.000000 -0.083333  0.000000      1.000000
  0.083333 -0.083333  0.000000      1.000000
  0.166667 -0.083333  0.000000      1.000000
  0.250000 -0.083333  0.000000      1.000000
  0.333333 -0.083333  0.000000      1.000000
  0.416667 -0.083333  0.000000      1.000000
  0.500000 -0.083333  0.000000      1.000000
 -0.416667 -0.083333  0.000000      1.000000
 -0.333333 -0.083333  0.000000      1.000000
 -0.250000 -0.083333  0.000000      1.000000
 -0.166667 -0.083333  0.000000      1.000000
 -0.083333 -0.083333  0.000000      1.000000
 
 Following cartesian coordinates:
            Coordinates               Weight
  0.000000  0.000000  0.000000      1.000000
  0.018988 -0.010962  0.000000      1.000000
  0.037975 -0.021925  0.000000      1.000000
  0.056963 -0.032887  0.000000      1.000000
  0.075950 -0.043850  0.000000      1.000000
  0.094938 -0.054812  0.000000      1.000000
  0.113925 -0.065775  0.000000      1.000000
 -0.094938  0.054812  0.000000      1.000000
 -0.075950  0.043850  0.000000      1.000000
 -0.056963  0.032887  0.000000      1.000000
 -0.037975  0.021925  0.000000      1.000000
 -0.018988  0.010962  0.000000      1.000000
  0.000000  0.021925  0.000000      1.000000
  0.018988  0.010962  0.000000      1.000000
  0.037975  0.000000  0.000000      1.000000
  0.056963 -0.010962  0.000000      1.000000
  0.075950 -0.021925  0.000000      1.000000
  0.094938 -0.032887  0.000000      1.000000
  0.113925 -0.043850  0.000000      1.000000
 -0.094938  0.076737  0.000000      1.000000
 -0.075950  0.065775  0.000000      1.000000
 -0.056963  0.054812  0.000000      1.000000
 -0.037975  0.043850  0.000000      1.000000
 -0.018988  0.032887  0.000000      1.000000
  0.000000  0.043850  0.000000      1.000000
  0.018988  0.032887  0.000000      1.000000
  0.037975  0.021925  0.000000      1.000000
  0.056963  0.010962  0.000000      1.000000
  0.075950  0.000000  0.000000      1.000000
  0.094938 -0.010962  0.000000      1.000000
  0.113925 -0.021925  0.000000      1.000000
 -0.094938  0.098662  0.000000      1.000000
 -0.075950  0.087700  0.000000      1.000000
 -0.056963  0.076737  0.000000      1.000000
 -0.037975  0.065775  0.000000      1.000000
 -0.018988  0.054812  0.000000      1.000000
  0.000000  0.065775  0.000000      1.000000
  0.018988  0.054812  0.000000      1.000000
  0.037975  0.043850  0.000000      1.000000
  0.056963  0.032887  0.000000      1.000000
  0.075950  0.021925  0.000000      1.000000
  0.094938  0.010962  0.000000      1.000000
  0.113925  0.000000  0.000000      1.000000
 -0.094938  0.120587  0.000000      1.000000
 -0.075950  0.109625  0.000000      1.000000
 -0.056963  0.098662  0.000000      1.000000
 -0.037975  0.087700  0.000000      1.000000
 -0.018988  0.076737  0.000000      1.000000
  0.000000  0.087700  0.000000      1.000000
  0.018988  0.076737  0.000000      1.000000
  0.037975  0.065775  0.000000      1.000000
  0.056963  0.054812  0.000000      1.000000
  0.075950  0.043850  0.000000      1.000000
  0.094938  0.032887  0.000000      1.000000
  0.113925  0.021925  0.000000      1.000000
 -0.094938  0.142512  0.000000      1.000000
 -0.075950  0.131550  0.000000      1.000000
 -0.056963  0.120587  0.000000      1.000000
 -0.037975  0.109625  0.000000      1.000000
 -0.018988  0.098662  0.000000      1.000000
  0.000000  0.109625  0.000000      1.000000
  0.018988  0.098662  0.000000      1.000000
  0.037975  0.087700  0.000000      1.000000
  0.056963  0.076737  0.000000      1.000000
  0.075950  0.065775  0.000000      1.000000
  0.094938  0.054812  0.000000      1.000000
  0.113925  0.043850  0.000000      1.000000
 -0.094938  0.164437  0.000000      1.000000
 -0.075950  0.153474  0.000000      1.000000
 -0.056963  0.142512  0.000000      1.000000
 -0.037975  0.131550  0.000000      1.000000
 -0.018988  0.120587  0.000000      1.000000
  0.000000  0.131550  0.000000      1.000000
  0.018988  0.120587  0.000000      1.000000
  0.037975  0.109625  0.000000      1.000000
  0.056963  0.098662  0.000000      1.000000
  0.075950  0.087700  0.000000      1.000000
  0.094938  0.076737  0.000000      1.000000
  0.113925  0.065775  0.000000      1.000000
 -0.094938  0.186362  0.000000      1.000000
 -0.075950  0.175399  0.000000      1.000000
 -0.056963  0.164437  0.000000      1.000000
 -0.037975  0.153474  0.000000      1.000000
 -0.018988  0.142512  0.000000      1.000000
  0.000000 -0.109625  0.000000      1.000000
  0.018988 -0.120587  0.000000      1.000000
  0.037975 -0.131550  0.000000      1.000000
  0.056963 -0.142512  0.000000      1.000000
  0.075950 -0.153474  0.000000      1.000000
  0.094938 -0.164437  0.000000      1.000000
  0.113925 -0.175399  0.000000      1.000000
 -0.094938 -0.054812  0.000000      1.000000
 -0.075950 -0.065775  0.000000      1.000000
 -0.056963 -0.076737  0.000000      1.000000
 -0.037975 -0.087700  0.000000      1.000000
 -0.018988 -0.098662  0.000000      1.000000
  0.000000 -0.087700  0.000000      1.000000
  0.018988 -0.098662  0.000000      1.000000
  0.037975 -0.109625  0.000000      1.000000
  0.056963 -0.120587  0.000000      1.000000
  0.075950 -0.131550  0.000000      1.000000
  0.094938 -0.142512  0.000000      1.000000
  0.113925 -0.153474  0.000000      1.000000
 -0.094938 -0.032887  0.000000      1.000000
 -0.075950 -0.043850  0.000000      1.000000
 -0.056963 -0.054812  0.000000      1.000000
 -0.037975 -0.065775  0.000000      1.000000
 -0.018988 -0.076737  0.000000      1.000000
  0.000000 -0.065775  0.000000      1.000000
  0.018988 -0.076737  0.000000      1.000000
  0.037975 -0.087700  0.000000      1.000000
  0.056963 -0.098662  0.000000      1.000000
  0.075950 -0.109625  0.000000      1.000000
  0.094938 -0.120587  0.000000      1.000000
  0.113925 -0.131550  0.000000      1.000000
 -0.094938 -0.010962  0.000000      1.000000
 -0.075950 -0.021925  0.000000      1.000000
 -0.056963 -0.032887  0.000000      1.000000
 -0.037975 -0.043850  0.000000      1.000000
 -0.018988 -0.054812  0.000000      1.000000
  0.000000 -0.043850  0.000000      1.000000
  0.018988 -0.054812  0.000000      1.000000
  0.037975 -0.065775  0.000000      1.000000
  0.056963 -0.076737  0.000000      1.000000
  0.075950 -0.087700  0.000000      1.000000
  0.094938 -0.098662  0.000000      1.000000
  0.113925 -0.109625  0.000000      1.000000
 -0.094938  0.010962  0.000000      1.000000
 -0.075950  0.000000  0.000000      1.000000
 -0.056963 -0.010962  0.000000      1.000000
 -0.037975 -0.021925  0.000000      1.000000
 -0.018988 -0.032887  0.000000      1.000000
  0.000000 -0.021925  0.000000      1.000000
  0.018988 -0.032887  0.000000      1.000000
  0.037975 -0.043850  0.000000      1.000000
  0.056963 -0.054812  0.000000      1.000000
  0.075950 -0.065775  0.000000      1.000000
  0.094938 -0.076737  0.000000      1.000000
  0.113925 -0.087700  0.000000      1.000000
 -0.094938  0.032887  0.000000      1.000000
 -0.075950  0.021925  0.000000      1.000000
 -0.056963  0.010962  0.000000      1.000000
 -0.037975  0.000000  0.000000      1.000000
 -0.018988 -0.010962  0.000000      1.000000
 


--------------------------------------------------------------------------------------------------------




 Dimension of arrays:
   k-points           NKPTS =    144   k-points in BZ     NKDIM =    144   number of bands    NBANDS=     18
   number of dos      NEDOS =    301   number of ions     NIONS =      2
   non local maximal  LDIM  =      5   non local SUM 2l+1 LMDIM =     13
   total plane-waves  NPLWV =  46080
   max r-space proj   IRMAX =      1   max aug-charges    IRDMAX=  17740
   dimension x,y,z NGX =    24 NGY =   24 NGZ =   80
   dimension x,y,z NGXF=    48 NGYF=   48 NGZF=  160
   support grid    NGXF=    48 NGYF=   48 NGZF=  160
   ions per type =               2
 NGX,Y,Z   is equivalent  to a cutoff of   9.09,  9.09,  8.87 a.u.
 NGXF,Y,Z  is equivalent  to a cutoff of  18.18, 18.18, 17.73 a.u.


 I would recommend the setting:
   dimension x,y,z NGX =    21 NGY =   21 NGZ =   73
 SYSTEM =  MoTe2 Hyun-Jung Kim.                    
 POSCAR =  Bi-nanoribbon                           

 Startparameter for this run:
   NWRITE =      2    write-flag & timer
   PREC   = n         normal or accurate (medium, high low for compatibility)
   ISTART =      0    job   : 0-new  1-cont  2-samecut
   ICHARG =     11    charge: 1-file 2-atom 10-const
   ISPIN  =      1    spin polarized calculation?
   LNONCOLLINEAR =      T non collinear calculations
   LSORBIT =      T    spin-orbit coupling
   INIWAV =      1    electr: 0-lowe 1-rand  2-diag
   LASPH  =      F    aspherical Exc in radial PAW
   METAGGA=      F    non-selfconsistent MetaGGA calc.

 Electronic Relaxation 1
   ENCUT  =  400.0 eV  29.40 Ry    5.42 a.u.   7.16  7.16 24.46*2*pi/ulx,y,z
   ENINI  =  400.0     initial cutoff
   ENAUG  =  265.4 eV  augmentation charge cutoff
   NELM   =    200;   NELMIN=  2; NELMDL=  0     # of ELM steps 
   EDIFF  = 0.1E-05   stopping-criterion for ELM
   LREAL  =      F    real-space projection
   NLSPLINE    = F    spline interpolate recip. space projectors
   LCOMPAT=      F    compatible to vasp.4.4
   GGA_COMPAT  = F    GGA compatible to vasp.4.4-vasp.4.6
   LMAXPAW     = -100 max onsite density
   LMAXMIX     =    2 max onsite mixed and CHGCAR
   VOSKOWN=      0    Vosko Wilk Nusair interpolation
   ROPT   =    0.00000
 Ionic relaxation
   EDIFFG = 0.1E-04   stopping-criterion for IOM
   NSW    =      0    number of steps for IOM
   NBLOCK =      1;   KBLOCK =      1    inner block; outer block 
   IBRION =     -1    ionic relax: 0-MD 1-quasi-New 2-CG
   NFREE  =      0    steps in history (QN), initial steepest desc. (CG)
   ISIF   =      2    stress and relaxation
   IWAVPR =     10    prediction:  0-non 1-charg 2-wave 3-comb
   ISYM   =     -1    0-nonsym 1-usesym 2-fastsym
   LCORR  =      T    Harris-Foulkes like correction to forces

   POTIM  = 0.5000    time-step for ionic-motion
   TEIN   =    0.0    initial temperature
   TEBEG  =    0.0;   TEEND  =   0.0 temperature during run
   SMASS  =  -3.00    Nose mass-parameter (am)
   estimated Nose-frequenzy (Omega)   =  0.10E-29 period in steps =****** mass=  -0.440E-27a.u.
   SCALEE = 1.0000    scale energy and forces
   NPACO  =    256;   APACO  = 16.0  distance and # of slots for P.C.
   PSTRESS=    0.0 pullay stress

  Mass of Ions in am
   POMASS = 208.98
  Ionic Valenz
   ZVAL   =   5.00
  Atomic Wigner-Seitz radii
   RWIGS  =  -1.00
  virtual crystal weights 
   VCA    =   1.00
   NELECT =      10.0000    total number of electrons
   NUPDOWN=      -1.0000    fix difference up-down

 DOS related values:
   EMIN   =  10.00;   EMAX   =-10.00  energy-range for DOS
   EFERMI =   0.00
   ISMEAR =     0;   SIGMA  =   0.02  broadening in eV -4-tet -1-fermi 0-gaus

 Electronic relaxation 2 (details)
   IALGO  =     38    algorithm
   LDIAG  =      T    sub-space diagonalisation (order eigenvalues)
   LSUBROT=      F    optimize rotation matrix (better conditioning)
   TURBO    =      0    0=normal 1=particle mesh
   IRESTART =      0    0=no restart 2=restart with 2 vectors
   NREBOOT  =      0    no. of reboots
   NMIN     =      0    reboot dimension
   EREF     =   0.00    reference energy to select bands
   IMIX   =      4    mixing-type and parameters
     AMIX     =   0.40;   BMIX     =  1.00
     AMIX_MAG =   1.60;   BMIX_MAG =  1.00
     AMIN     =   0.10
     WC   =   100.;   INIMIX=   1;  MIXPRE=   1;  MAXMIX= -45

 Intra band minimization:
   WEIMIN = 0.0000     energy-eigenvalue tresh-hold
   EBREAK =  0.14E-07  absolut break condition
   DEPER  =   0.30     relativ break condition  

   TIME   =   0.40     timestep for ELM

  volume/ion in A,a.u.               =     125.11       844.28
  Fermi-wavevector in a.u.,A,eV,Ry     =   0.559716  1.057709  4.262457  0.313282
  Thomas-Fermi vector in A             =   1.595283
 
 Write flags
   LWAVE  =      T    write WAVECAR
   LCHARG =      F    write CHGCAR
   LVTOT  =      F    write LOCPOT, total local potential
   LVHAR  =      F    write LOCPOT, Hartree potential only
   LELF   =      F    write electronic localiz. function (ELF)
   LORBIT =      0    0 simple, 1 ext, 2 COOP (PROOUT)


 Dipole corrections
   LMONO  =      F    monopole corrections only (constant potential shift)
   LDIPOL =      F    correct potential (dipole corrections)
   IDIPOL =      0    1-x, 2-y, 3-z, 4-all directions 
   EPSILON=  1.0000000 bulk dielectric constant

 Exchange correlation treatment:
   GGA     =    --    GGA type
   LEXCH   =     8    internal setting for exchange type
   VOSKOWN=      0    Vosko Wilk Nusair interpolation
   LHFCALC =     F    Hartree Fock is set to
   LHFONE  =     F    Hartree Fock one center treatment
   AEXX    =    0.0000 exact exchange contribution

 Linear response parameters
   LEPSILON=     F    determine dielectric tensor
   LRPA    =     F    only Hartree local field effects (RPA)
   LNABLA  =     F    use nabla operator in PAW spheres
   LVEL    =     F    velocity operator in full k-point grid
   LINTERFAST=   F  fast interpolation
   KINTER  =     0    interpolate to denser k-point grid
   CSHIFT  =0.1000    complex shift for real part using Kramers Kronig
   OMEGAMAX=  -1.0    maximum frequency
   DEG_THRESHOLD= 0.2000000E-02 threshold for treating states as degnerate
   RTIME   =    0.100 relaxation time in fs

 Orbital magnetization related:
   ORBITALMAG=     F  switch on orbital magnetization
   LCHIMAG   =     F  perturbation theory with respect to B field
   DQ        =  0.001000  dq finite difference perturbation B field



--------------------------------------------------------------------------------------------------------


 Static calculation
 charge density and potential remain constant during run
 non collinear spin polarized calculation
 Variant of blocked Davidson
 Davidson routine will perform the subspace rotation
 perform sub-space diagonalisation
    after iterative eigenvector-optimisation
 no mixing
 using additional bands           13
 reciprocal scheme for non local part
 use partial core corrections
 calculate Harris-corrections to forces 
   (improved forces if not selfconsistent)
 use gradient corrections 
 WARNING: stress and forces are not correct
  (second derivative of E(xc) not defined)
 use of overlap-Matrix (Vanderbilt PP)
 Gauss-broadening in eV      SIGMA  =   0.02


--------------------------------------------------------------------------------------------------------


  energy-cutoff  :      400.00
  volume of cell :      250.22
      direct lattice vectors                 reciprocal lattice vectors
     4.388842160  0.000000000  0.000000000     0.227850527 -0.131549563  0.000000000
     2.194421080  3.800848804  0.000000000     0.000000000  0.263099126  0.000000000
     0.000000000  0.000000000 15.000000000     0.000000000  0.000000000  0.066666667

  length of vectors
     4.388842160  4.388842160 15.000000000     0.263099126  0.263099126  0.066666667


 
 k-points in units of 2pi/SCALE and weight: Automatic mesh                          
   0.00000000  0.00000000  0.00000000       0.007
   0.01898754 -0.01096246  0.00000000       0.007
   0.03797509 -0.02192493  0.00000000       0.007
   0.05696263 -0.03288739  0.00000000       0.007
   0.07595018 -0.04384985  0.00000000       0.007
   0.09493772 -0.05481232  0.00000000       0.007
   0.11392526 -0.06577478  0.00000000       0.007
  -0.09493772  0.05481232  0.00000000       0.007
  -0.07595018  0.04384985  0.00000000       0.007
  -0.05696263  0.03288739  0.00000000       0.007
  -0.03797509  0.02192493  0.00000000       0.007
  -0.01898754  0.01096246  0.00000000       0.007
   0.00000000  0.02192493  0.00000000       0.007
   0.01898754  0.01096246  0.00000000       0.007
   0.03797509  0.00000000  0.00000000       0.007
   0.05696263 -0.01096246  0.00000000       0.007
   0.07595018 -0.02192493  0.00000000       0.007
   0.09493772 -0.03288739  0.00000000       0.007
   0.11392526 -0.04384985  0.00000000       0.007
  -0.09493772  0.07673725  0.00000000       0.007
  -0.07595018  0.06577478  0.00000000       0.007
  -0.05696263  0.05481232  0.00000000       0.007
  -0.03797509  0.04384985  0.00000000       0.007
  -0.01898754  0.03288739  0.00000000       0.007
   0.00000000  0.04384985  0.00000000       0.007
   0.01898754  0.03288739  0.00000000       0.007
   0.03797509  0.02192493  0.00000000       0.007
   0.05696263  0.01096246  0.00000000       0.007
   0.07595018  0.00000000  0.00000000       0.007
   0.09493772 -0.01096246  0.00000000       0.007
   0.11392526 -0.02192493  0.00000000       0.007
  -0.09493772  0.09866217  0.00000000       0.007
  -0.07595018  0.08769971  0.00000000       0.007
  -0.05696263  0.07673725  0.00000000       0.007
  -0.03797509  0.06577478  0.00000000       0.007
  -0.01898754  0.05481232  0.00000000       0.007
   0.00000000  0.06577478  0.00000000       0.007
   0.01898754  0.05481232  0.00000000       0.007
   0.03797509  0.04384985  0.00000000       0.007
   0.05696263  0.03288739  0.00000000       0.007
   0.07595018  0.02192493  0.00000000       0.007
   0.09493772  0.01096246  0.00000000       0.007
   0.11392526  0.00000000  0.00000000       0.007
  -0.09493772  0.12058710  0.00000000       0.007
  -0.07595018  0.10962464  0.00000000       0.007
  -0.05696263  0.09866217  0.00000000       0.007
  -0.03797509  0.08769971  0.00000000       0.007
  -0.01898754  0.07673725  0.00000000       0.007
   0.00000000  0.08769971  0.00000000       0.007
   0.01898754  0.07673725  0.00000000       0.007
   0.03797509  0.06577478  0.00000000       0.007
   0.05696263  0.05481232  0.00000000       0.007
   0.07595018  0.04384985  0.00000000       0.007
   0.09493772  0.03288739  0.00000000       0.007
   0.11392526  0.02192493  0.00000000       0.007
  -0.09493772  0.14251203  0.00000000       0.007
  -0.07595018  0.13154956  0.00000000       0.007
  -0.05696263  0.12058710  0.00000000       0.007
  -0.03797509  0.10962464  0.00000000       0.007
  -0.01898754  0.09866217  0.00000000       0.007
   0.00000000  0.10962464  0.00000000       0.007
   0.01898754  0.09866217  0.00000000       0.007
   0.03797509  0.08769971  0.00000000       0.007
   0.05696263  0.07673725  0.00000000       0.007
   0.07595018  0.06577478  0.00000000       0.007
   0.09493772  0.05481232  0.00000000       0.007
   0.11392526  0.04384985  0.00000000       0.007
  -0.09493772  0.16443695  0.00000000       0.007
  -0.07595018  0.15347449  0.00000000       0.007
  -0.05696263  0.14251203  0.00000000       0.007
  -0.03797509  0.13154956  0.00000000       0.007
  -0.01898754  0.12058710  0.00000000       0.007
   0.00000000  0.13154956  0.00000000       0.007
   0.01898754  0.12058710  0.00000000       0.007
   0.03797509  0.10962464  0.00000000       0.007
   0.05696263  0.09866217  0.00000000       0.007
   0.07595018  0.08769971  0.00000000       0.007
   0.09493772  0.07673725  0.00000000       0.007
   0.11392526  0.06577478  0.00000000       0.007
  -0.09493772  0.18636188  0.00000000       0.007
  -0.07595018  0.17539942  0.00000000       0.007
  -0.05696263  0.16443695  0.00000000       0.007
  -0.03797509  0.15347449  0.00000000       0.007
  -0.01898754  0.14251203  0.00000000       0.007
   0.00000000 -0.10962464  0.00000000       0.007
   0.01898754 -0.12058710  0.00000000       0.007
   0.03797509 -0.13154956  0.00000000       0.007
   0.05696263 -0.14251203  0.00000000       0.007
   0.07595018 -0.15347449  0.00000000       0.007
   0.09493772 -0.16443695  0.00000000       0.007
   0.11392526 -0.17539942  0.00000000       0.007
  -0.09493772 -0.05481232  0.00000000       0.007
  -0.07595018 -0.06577478  0.00000000       0.007
  -0.05696263 -0.07673725  0.00000000       0.007
  -0.03797509 -0.08769971  0.00000000       0.007
  -0.01898754 -0.09866217  0.00000000       0.007
   0.00000000 -0.08769971  0.00000000       0.007
   0.01898754 -0.09866217  0.00000000       0.007
   0.03797509 -0.10962464  0.00000000       0.007
   0.05696263 -0.12058710  0.00000000       0.007
   0.07595018 -0.13154956  0.00000000       0.007
   0.09493772 -0.14251203  0.00000000       0.007
   0.11392526 -0.15347449  0.00000000       0.007
  -0.09493772 -0.03288739  0.00000000       0.007
  -0.07595018 -0.04384985  0.00000000       0.007
  -0.05696263 -0.05481232  0.00000000       0.007
  -0.03797509 -0.06577478  0.00000000       0.007
  -0.01898754 -0.07673725  0.00000000       0.007
   0.00000000 -0.06577478  0.00000000       0.007
   0.01898754 -0.07673725  0.00000000       0.007
   0.03797509 -0.08769971  0.00000000       0.007
   0.05696263 -0.09866217  0.00000000       0.007
   0.07595018 -0.10962464  0.00000000       0.007
   0.09493772 -0.12058710  0.00000000       0.007
   0.11392526 -0.13154956  0.00000000       0.007
  -0.09493772 -0.01096246  0.00000000       0.007
  -0.07595018 -0.02192493  0.00000000       0.007
  -0.05696263 -0.03288739  0.00000000       0.007
  -0.03797509 -0.04384985  0.00000000       0.007
  -0.01898754 -0.05481232  0.00000000       0.007
   0.00000000 -0.04384985  0.00000000       0.007
   0.01898754 -0.05481232  0.00000000       0.007
   0.03797509 -0.06577478  0.00000000       0.007
   0.05696263 -0.07673725  0.00000000       0.007
   0.07595018 -0.08769971  0.00000000       0.007
   0.09493772 -0.09866217  0.00000000       0.007
   0.11392526 -0.10962464  0.00000000       0.007
  -0.09493772  0.01096246  0.00000000       0.007
  -0.07595018  0.00000000  0.00000000       0.007
  -0.05696263 -0.01096246  0.00000000       0.007
  -0.03797509 -0.02192493  0.00000000       0.007
  -0.01898754 -0.03288739  0.00000000       0.007
   0.00000000 -0.02192493  0.00000000       0.007
   0.01898754 -0.03288739  0.00000000       0.007
   0.03797509 -0.04384985  0.00000000       0.007
   0.05696263 -0.05481232  0.00000000       0.007
   0.07595018 -0.06577478  0.00000000       0.007
   0.09493772 -0.07673725  0.00000000       0.007
   0.11392526 -0.08769971  0.00000000       0.007
  -0.09493772  0.03288739  0.00000000       0.007
  -0.07595018  0.02192493  0.00000000       0.007
  -0.05696263  0.01096246  0.00000000       0.007
  -0.03797509  0.00000000  0.00000000       0.007
  -0.01898754 -0.01096246  0.00000000       0.007
 
 k-points in reciprocal lattice and weights: Automatic mesh                          
   0.00000000  0.00000000  0.00000000       0.007
   0.08333333  0.00000000  0.00000000       0.007
   0.16666667  0.00000000  0.00000000       0.007
   0.25000000  0.00000000  0.00000000       0.007
   0.33333333  0.00000000  0.00000000       0.007
   0.41666667  0.00000000  0.00000000       0.007
   0.50000000  0.00000000  0.00000000       0.007
  -0.41666667  0.00000000  0.00000000       0.007
  -0.33333333  0.00000000  0.00000000       0.007
  -0.25000000  0.00000000  0.00000000       0.007
  -0.16666667  0.00000000  0.00000000       0.007
  -0.08333333  0.00000000  0.00000000       0.007
   0.00000000  0.08333333  0.00000000       0.007
   0.08333333  0.08333333  0.00000000       0.007
   0.16666667  0.08333333  0.00000000       0.007
   0.25000000  0.08333333  0.00000000       0.007
   0.33333333  0.08333333  0.00000000       0.007
   0.41666667  0.08333333  0.00000000       0.007
   0.50000000  0.08333333  0.00000000       0.007
  -0.41666667  0.08333333  0.00000000       0.007
  -0.33333333  0.08333333  0.00000000       0.007
  -0.25000000  0.08333333  0.00000000       0.007
  -0.16666667  0.08333333  0.00000000       0.007
  -0.08333333  0.08333333  0.00000000       0.007
   0.00000000  0.16666667  0.00000000       0.007
   0.08333333  0.16666667  0.00000000       0.007
   0.16666667  0.16666667  0.00000000       0.007
   0.25000000  0.16666667  0.00000000       0.007
   0.33333333  0.16666667  0.00000000       0.007
   0.41666667  0.16666667  0.00000000       0.007
   0.50000000  0.16666667  0.00000000       0.007
  -0.41666667  0.16666667  0.00000000       0.007
  -0.33333333  0.16666667  0.00000000       0.007
  -0.25000000  0.16666667  0.00000000       0.007
  -0.16666667  0.16666667  0.00000000       0.007
  -0.08333333  0.16666667  0.00000000       0.007
   0.00000000  0.25000000  0.00000000       0.007
   0.08333333  0.25000000  0.00000000       0.007
   0.16666667  0.25000000  0.00000000       0.007
   0.25000000  0.25000000  0.00000000       0.007
   0.33333333  0.25000000  0.00000000       0.007
   0.41666667  0.25000000  0.00000000       0.007
   0.50000000  0.25000000  0.00000000       0.007
  -0.41666667  0.25000000  0.00000000       0.007
  -0.33333333  0.25000000  0.00000000       0.007
  -0.25000000  0.25000000  0.00000000       0.007
  -0.16666667  0.25000000  0.00000000       0.007
  -0.08333333  0.25000000  0.00000000       0.007
   0.00000000  0.33333333  0.00000000       0.007
   0.08333333  0.33333333  0.00000000       0.007
   0.16666667  0.33333333  0.00000000       0.007
   0.25000000  0.33333333  0.00000000       0.007
   0.33333333  0.33333333  0.00000000       0.007
   0.41666667  0.33333333  0.00000000       0.007
   0.50000000  0.33333333  0.00000000       0.007
  -0.41666667  0.33333333  0.00000000       0.007
  -0.33333333  0.33333333  0.00000000       0.007
  -0.25000000  0.33333333  0.00000000       0.007
  -0.16666667  0.33333333  0.00000000       0.007
  -0.08333333  0.33333333  0.00000000       0.007
   0.00000000  0.41666667  0.00000000       0.007
   0.08333333  0.41666667  0.00000000       0.007
   0.16666667  0.41666667  0.00000000       0.007
   0.25000000  0.41666667  0.00000000       0.007
   0.33333333  0.41666667  0.00000000       0.007
   0.41666667  0.41666667  0.00000000       0.007
   0.50000000  0.41666667  0.00000000       0.007
  -0.41666667  0.41666667  0.00000000       0.007
  -0.33333333  0.41666667  0.00000000       0.007
  -0.25000000  0.41666667  0.00000000       0.007
  -0.16666667  0.41666667  0.00000000       0.007
  -0.08333333  0.41666667  0.00000000       0.007
   0.00000000  0.50000000  0.00000000       0.007
   0.08333333  0.50000000  0.00000000       0.007
   0.16666667  0.50000000  0.00000000       0.007
   0.25000000  0.50000000  0.00000000       0.007
   0.33333333  0.50000000  0.00000000       0.007
   0.41666667  0.50000000  0.00000000       0.007
   0.50000000  0.50000000  0.00000000       0.007
  -0.41666667  0.50000000  0.00000000       0.007
  -0.33333333  0.50000000  0.00000000       0.007
  -0.25000000  0.50000000  0.00000000       0.007
  -0.16666667  0.50000000  0.00000000       0.007
  -0.08333333  0.50000000  0.00000000       0.007
   0.00000000 -0.41666667  0.00000000       0.007
   0.08333333 -0.41666667  0.00000000       0.007
   0.16666667 -0.41666667  0.00000000       0.007
   0.25000000 -0.41666667  0.00000000       0.007
   0.33333333 -0.41666667  0.00000000       0.007
   0.41666667 -0.41666667  0.00000000       0.007
   0.50000000 -0.41666667  0.00000000       0.007
  -0.41666667 -0.41666667  0.00000000       0.007
  -0.33333333 -0.41666667  0.00000000       0.007
  -0.25000000 -0.41666667  0.00000000       0.007
  -0.16666667 -0.41666667  0.00000000       0.007
  -0.08333333 -0.41666667  0.00000000       0.007
   0.00000000 -0.33333333  0.00000000       0.007
   0.08333333 -0.33333333  0.00000000       0.007
   0.16666667 -0.33333333  0.00000000       0.007
   0.25000000 -0.33333333  0.00000000       0.007
   0.33333333 -0.33333333  0.00000000       0.007
   0.41666667 -0.33333333  0.00000000       0.007
   0.50000000 -0.33333333  0.00000000       0.007
  -0.41666667 -0.33333333  0.00000000       0.007
  -0.33333333 -0.33333333  0.00000000       0.007
  -0.25000000 -0.33333333  0.00000000       0.007
  -0.16666667 -0.33333333  0.00000000       0.007
  -0.08333333 -0.33333333  0.00000000       0.007
   0.00000000 -0.25000000  0.00000000       0.007
   0.08333333 -0.25000000  0.00000000       0.007
   0.16666667 -0.25000000  0.00000000       0.007
   0.25000000 -0.25000000  0.00000000       0.007
   0.33333333 -0.25000000  0.00000000       0.007
   0.41666667 -0.25000000  0.00000000       0.007
   0.50000000 -0.25000000  0.00000000       0.007
  -0.41666667 -0.25000000  0.00000000       0.007
  -0.33333333 -0.25000000  0.00000000       0.007
  -0.25000000 -0.25000000  0.00000000       0.007
  -0.16666667 -0.25000000  0.00000000       0.007
  -0.08333333 -0.25000000  0.00000000       0.007
   0.00000000 -0.16666667  0.00000000       0.007
   0.08333333 -0.16666667  0.00000000       0.007
   0.16666667 -0.16666667  0.00000000       0.007
   0.25000000 -0.16666667  0.00000000       0.007
   0.33333333 -0.16666667  0.00000000       0.007
   0.41666667 -0.16666667  0.00000000       0.007
   0.50000000 -0.16666667  0.00000000       0.007
  -0.41666667 -0.16666667  0.00000000       0.007
  -0.33333333 -0.16666667  0.00000000       0.007
  -0.25000000 -0.16666667  0.00000000       0.007
  -0.16666667 -0.16666667  0.00000000       0.007
  -0.08333333 -0.16666667  0.00000000       0.007
   0.00000000 -0.08333333  0.00000000       0.007
   0.08333333 -0.08333333  0.00000000       0.007
   0.16666667 -0.08333333  0.00000000       0.007
   0.25000000 -0.08333333  0.00000000       0.007
   0.33333333 -0.08333333  0.00000000       0.007
   0.41666667 -0.08333333  0.00000000       0.007
   0.50000000 -0.08333333  0.00000000       0.007
  -0.41666667 -0.08333333  0.00000000       0.007
  -0.33333333 -0.08333333  0.00000000       0.007
  -0.25000000 -0.08333333  0.00000000       0.007
  -0.16666667 -0.08333333  0.00000000       0.007
  -0.08333333 -0.08333333  0.00000000       0.007
 
 position of ions in fractional coordinates (direct lattice) 
   0.16666667  0.16666667  0.05796187
   0.83333333  0.83333333  0.94203813
 
 position of ions in cartesian coordinates  (Angst):
   1.09721054  0.63347480  0.86942800
   5.48605270  3.16737400 14.13057200
 
 Euler angles ALPHA=     0.0000000  BETA=     0.0000000

 transformation matrix from SAXIS to cartesian coordinates
 ---------------------------------------------------------
     1.0000000 m_x     0.0000000 m_y     0.0000000 m_z
     0.0000000 m_x     1.0000000 m_y     0.0000000 m_z
     0.0000000 m_x     0.0000000 m_y     1.0000000 m_z

 transformation matrix from cartesian coordinates to SAXIS
 ---------------------------------------------------------
     1.0000000 m_x     0.0000000 m_y     0.0000000 m_z
     0.0000000 m_x     1.0000000 m_y     0.0000000 m_z
     0.0000000 m_x     0.0000000 m_y     1.0000000 m_z




--------------------------------------------------------------------------------------------------------


 k-point  1 :   0.0000 0.0000 0.0000  plane waves:    9062
 k-point  2 :   0.0833 0.0000 0.0000  plane waves:    9102
 k-point  3 :   0.1667 0.0000 0.0000  plane waves:    9054
 k-point  4 :   0.2500 0.0000 0.0000  plane waves:    9120
 k-point  5 :   0.3333 0.0000 0.0000  plane waves:    9092
 k-point  6 :   0.4167 0.0000 0.0000  plane waves:    9100
 k-point  7 :   0.5000 0.0000 0.0000  plane waves:    9096
 k-point  8 :  -0.4167 0.0000 0.0000  plane waves:    9100
 k-point  9 :  -0.3333 0.0000 0.0000  plane waves:    9092
 k-point 10 :  -0.2500 0.0000 0.0000  plane waves:    9120
 k-point 11 :  -0.1667 0.0000 0.0000  plane waves:    9054
 k-point 12 :  -0.0833 0.0000 0.0000  plane waves:    9102
 k-point 13 :   0.0000 0.0833 0.0000  plane waves:    9102
 k-point 14 :   0.0833 0.0833 0.0000  plane waves:    9102
 k-point 15 :   0.1667 0.0833 0.0000  plane waves:    9086
 k-point 16 :   0.2500 0.0833 0.0000  plane waves:    9074
 k-point 17 :   0.3333 0.0833 0.0000  plane waves:    9068
 k-point 18 :   0.4167 0.0833 0.0000  plane waves:    9092
 k-point 19 :   0.5000 0.0833 0.0000  plane waves:    9098
 k-point 20 :  -0.4167 0.0833 0.0000  plane waves:    9098
 k-point 21 :  -0.3333 0.0833 0.0000  plane waves:    9092
 k-point 22 :  -0.2500 0.0833 0.0000  plane waves:    9068
 k-point 23 :  -0.1667 0.0833 0.0000  plane waves:    9074
 k-point 24 :  -0.0833 0.0833 0.0000  plane waves:    9086
 k-point 25 :   0.0000 0.1667 0.0000  plane waves:    9054
 k-point 26 :   0.0833 0.1667 0.0000  plane waves:    9086
 k-point 27 :   0.1667 0.1667 0.0000  plane waves:    9054
 k-point 28 :   0.2500 0.1667 0.0000  plane waves:    9074
 k-point 29 :   0.3333 0.1667 0.0000  plane waves:    9078
 k-point 30 :   0.4167 0.1667 0.0000  plane waves:    9062
 k-point 31 :   0.5000 0.1667 0.0000  plane waves:    9094
 k-point 32 :  -0.4167 0.1667 0.0000  plane waves:    9126
 k-point 33 :  -0.3333 0.1667 0.0000  plane waves:    9094
 k-point 34 :  -0.2500 0.1667 0.0000  plane waves:    9062
 k-point 35 :  -0.1667 0.1667 0.0000  plane waves:    9078
 k-point 36 :  -0.0833 0.1667 0.0000  plane waves:    9074
 k-point 37 :   0.0000 0.2500 0.0000  plane waves:    9120
 k-point 38 :   0.0833 0.2500 0.0000  plane waves:    9074
 k-point 39 :   0.1667 0.2500 0.0000  plane waves:    9074
 k-point 40 :   0.2500 0.2500 0.0000  plane waves:    9120
 k-point 41 :   0.3333 0.2500 0.0000  plane waves:    9068
 k-point 42 :   0.4167 0.2500 0.0000  plane waves:    9062
 k-point 43 :   0.5000 0.2500 0.0000  plane waves:    9118
 k-point 44 :  -0.4167 0.2500 0.0000  plane waves:    9138
 k-point 45 :  -0.3333 0.2500 0.0000  plane waves:    9138
 k-point 46 :  -0.2500 0.2500 0.0000  plane waves:    9118
 k-point 47 :  -0.1667 0.2500 0.0000  plane waves:    9062
 k-point 48 :  -0.0833 0.2500 0.0000  plane waves:    9068
 k-point 49 :   0.0000 0.3333 0.0000  plane waves:    9092
 k-point 50 :   0.0833 0.3333 0.0000  plane waves:    9068
 k-point 51 :   0.1667 0.3333 0.0000  plane waves:    9078
 k-point 52 :   0.2500 0.3333 0.0000  plane waves:    9068
 k-point 53 :   0.3333 0.3333 0.0000  plane waves:    9092
 k-point 54 :   0.4167 0.3333 0.0000  plane waves:    9092
 k-point 55 :   0.5000 0.3333 0.0000  plane waves:    9094
 k-point 56 :  -0.4167 0.3333 0.0000  plane waves:    9138
 k-point 57 :  -0.3333 0.3333 0.0000  plane waves:    9150
 k-point 58 :  -0.2500 0.3333 0.0000  plane waves:    9138
 k-point 59 :  -0.1667 0.3333 0.0000  plane waves:    9094
 k-point 60 :  -0.0833 0.3333 0.0000  plane waves:    9092
 k-point 61 :   0.0000 0.4167 0.0000  plane waves:    9100
 k-point 62 :   0.0833 0.4167 0.0000  plane waves:    9092
 k-point 63 :   0.1667 0.4167 0.0000  plane waves:    9062
 k-point 64 :   0.2500 0.4167 0.0000  plane waves:    9062
 k-point 65 :   0.3333 0.4167 0.0000  plane waves:    9092
 k-point 66 :   0.4167 0.4167 0.0000  plane waves:    9100
 k-point 67 :   0.5000 0.4167 0.0000  plane waves:    9098
 k-point 68 :  -0.4167 0.4167 0.0000  plane waves:    9126
 k-point 69 :  -0.3333 0.4167 0.0000  plane waves:    9138
 k-point 70 :  -0.2500 0.4167 0.0000  plane waves:    9138
 k-point 71 :  -0.1667 0.4167 0.0000  plane waves:    9126
 k-point 72 :  -0.0833 0.4167 0.0000  plane waves:    9098
 k-point 73 :   0.0000 0.5000 0.0000  plane waves:    9096
 k-point 74 :   0.0833 0.5000 0.0000  plane waves:    9098
 k-point 75 :   0.1667 0.5000 0.0000  plane waves:    9094
 k-point 76 :   0.2500 0.5000 0.0000  plane waves:    9118
 k-point 77 :   0.3333 0.5000 0.0000  plane waves:    9094
 k-point 78 :   0.4167 0.5000 0.0000  plane waves:    9098
 k-point 79 :   0.5000 0.5000 0.0000  plane waves:    9096
 k-point 80 :  -0.4167 0.5000 0.0000  plane waves:    9098
 k-point 81 :  -0.3333 0.5000 0.0000  plane waves:    9094
 k-point 82 :  -0.2500 0.5000 0.0000  plane waves:    9118
 k-point 83 :  -0.1667 0.5000 0.0000  plane waves:    9094
 k-point 84 :  -0.0833 0.5000 0.0000  plane waves:    9098
 k-point 85 :   0.0000-0.4167 0.0000  plane waves:    9100
 k-point 86 :   0.0833-0.4167 0.0000  plane waves:    9098
 k-point 87 :   0.1667-0.4167 0.0000  plane waves:    9126
 k-point 88 :   0.2500-0.4167 0.0000  plane waves:    9138
 k-point 89 :   0.3333-0.4167 0.0000  plane waves:    9138
 k-point 90 :   0.4167-0.4167 0.0000  plane waves:    9126
 k-point 91 :   0.5000-0.4167 0.0000  plane waves:    9098
 k-point 92 :  -0.4167-0.4167 0.0000  plane waves:    9100
 k-point 93 :  -0.3333-0.4167 0.0000  plane waves:    9092
 k-point 94 :  -0.2500-0.4167 0.0000  plane waves:    9062
 k-point 95 :  -0.1667-0.4167 0.0000  plane waves:    9062
 k-point 96 :  -0.0833-0.4167 0.0000  plane waves:    9092
 k-point 97 :   0.0000-0.3333 0.0000  plane waves:    9092
 k-point 98 :   0.0833-0.3333 0.0000  plane waves:    9092
 k-point 99 :   0.1667-0.3333 0.0000  plane waves:    9094
 k-point ** :   0.2500-0.3333 0.0000  plane waves:    9138
 k-point ** :   0.3333-0.3333 0.0000  plane waves:    9150
 k-point ** :   0.4167-0.3333 0.0000  plane waves:    9138
 k-point ** :   0.5000-0.3333 0.0000  plane waves:    9094
 k-point ** :  -0.4167-0.3333 0.0000  plane waves:    9092
 k-point ** :  -0.3333-0.3333 0.0000  plane waves:    9092
 k-point ** :  -0.2500-0.3333 0.0000  plane waves:    9068
 k-point ** :  -0.1667-0.3333 0.0000  plane waves:    9078
 k-point ** :  -0.0833-0.3333 0.0000  plane waves:    9068
 k-point ** :   0.0000-0.2500 0.0000  plane waves:    9120
 k-point ** :   0.0833-0.2500 0.0000  plane waves:    9068
 k-point ** :   0.1667-0.2500 0.0000  plane waves:    9062
 k-point ** :   0.2500-0.2500 0.0000  plane waves:    9118
 k-point ** :   0.3333-0.2500 0.0000  plane waves:    9138
 k-point ** :   0.4167-0.2500 0.0000  plane waves:    9138
 k-point ** :   0.5000-0.2500 0.0000  plane waves:    9118
 k-point ** :  -0.4167-0.2500 0.0000  plane waves:    9062
 k-point ** :  -0.3333-0.2500 0.0000  plane waves:    9068
 k-point ** :  -0.2500-0.2500 0.0000  plane waves:    9120
 k-point ** :  -0.1667-0.2500 0.0000  plane waves:    9074
 k-point ** :  -0.0833-0.2500 0.0000  plane waves:    9074
 k-point ** :   0.0000-0.1667 0.0000  plane waves:    9054
 k-point ** :   0.0833-0.1667 0.0000  plane waves:    9074
 k-point ** :   0.1667-0.1667 0.0000  plane waves:    9078
 k-point ** :   0.2500-0.1667 0.0000  plane waves:    9062
 k-point ** :   0.3333-0.1667 0.0000  plane waves:    9094
 k-point ** :   0.4167-0.1667 0.0000  plane waves:    9126
 k-point ** :   0.5000-0.1667 0.0000  plane waves:    9094
 k-point ** :  -0.4167-0.1667 0.0000  plane waves:    9062
 k-point ** :  -0.3333-0.1667 0.0000  plane waves:    9078
 k-point ** :  -0.2500-0.1667 0.0000  plane waves:    9074
 k-point ** :  -0.1667-0.1667 0.0000  plane waves:    9054
 k-point ** :  -0.0833-0.1667 0.0000  plane waves:    9086
 k-point ** :   0.0000-0.0833 0.0000  plane waves:    9102
 k-point ** :   0.0833-0.0833 0.0000  plane waves:    9086
 k-point ** :   0.1667-0.0833 0.0000  plane waves:    9074
 k-point ** :   0.2500-0.0833 0.0000  plane waves:    9068
 k-point ** :   0.3333-0.0833 0.0000  plane waves:    9092
 k-point ** :   0.4167-0.0833 0.0000  plane waves:    9098
 k-point ** :   0.5000-0.0833 0.0000  plane waves:    9098
 k-point ** :  -0.4167-0.0833 0.0000  plane waves:    9092
 k-point ** :  -0.3333-0.0833 0.0000  plane waves:    9068
 k-point ** :  -0.2500-0.0833 0.0000  plane waves:    9074
 k-point ** :  -0.1667-0.0833 0.0000  plane waves:    9086
 k-point ** :  -0.0833-0.0833 0.0000  plane waves:    9102

 maximum and minimum number of plane-waves per node :      9150     9054

 maximum number of plane-waves:      9150
 maximum index in each direction: 
   IXMAX=    7   IYMAX=    7   IZMAX=   24
   IXMIN=   -7   IYMIN=   -7   IZMIN=  -24

 WARNING: aliasing errors must be expected set NGX to  30 to avoid them
 WARNING: aliasing errors must be expected set NGY to  30 to avoid them
 WARNING: aliasing errors must be expected set NGZ to  98 to avoid them
 aliasing errors are usually negligible using standard VASP settings
 and one can safely disregard these warnings

 serial   3D FFT for wavefunctions
 parallel 3D FFT for charge:
    minimum data exchange during FFTs selected (reduces bandwidth)


 total amount of memory used by VASP on root node   593887. kBytes
========================================================================

   base      :      30000. kBytes
   nonl-proj :      68661. kBytes
   fftplans  :      25064. kBytes
   grid      :      88473. kBytes
   one-center:         64. kBytes
   wavefun   :     381625. kBytes
 
     INWAV:  cpu time    0.0000: real time    0.0000
 initial charge density was supplied:
 number of electron      10.0000003 magnetization      -0.0000004     -0.0000004      0.0000001
 keeping initial charge density in first step


--------------------------------------------------------------------------------------------------------


 Maximum index for augmentation-charges        17046 (set IRDMAX)


--------------------------------------------------------------------------------------------------------


 First call to EWALD:  gamma=   0.281
 Maximum number of real-space cells 4x 4x 1
 Maximum number of reciprocal cells 2x 2x 6

 FEWALD executed in parallel
    FEWALD:  cpu time    0.0012: real time    0.0012


----------------------------------------- Iteration    1(   1)  ---------------------------------------


    POTLOK:  cpu time    0.7920: real time    0.7920
    SETDIJ:  cpu time    0.0624: real time    0.0624
     EDDAV:  cpu time    8.6215: real time    8.6219
       DOS:  cpu time    0.0010: real time    0.0010
    --------------------------------------------
      LOOP:  cpu time    9.4809: real time    9.4813

 eigenvalue-minimisations  :  5184
 total energy-change (2. order) : 0.4571139E+02  (-0.2257014E+03)
 number of electron      10.0000003 magnetization      -0.0000004     -0.0000004      0.0000001
 augmentation part       10.0000003 magnetization      -0.0000004     -0.0000004      0.0000001

 Free energy of the ion-electron system (eV)
  ---------------------------------------------------
  alpha Z        PSCENC =         0.95896536
  Ewald energy   TEWEN  =       111.53607347
  -Hartree energ DENC   =      -368.95544704
  -exchange      EXHF   =         0.00000000
  -V(xc)+E(xc)   XCENC  =      -220.49624639
  PAW double counting   =       540.63545300     -307.16334144
  entropy T*S    EENTRO =        -0.00028852
  eigenvalues    EBANDS =       -12.43015559
  atomic energy  EATOM  =       301.62637419
  Solvation  Ediel_sol  =         0.00000000
  ---------------------------------------------------
  free energy    TOTEN  =        45.71138704 eV

  energy without entropy =       45.71167556  energy(sigma->0) =       45.71153130


--------------------------------------------------------------------------------------------------------




----------------------------------------- Iteration    1(   2)  ---------------------------------------


     EDDAV:  cpu time   12.0381: real time   12.0414
       DOS:  cpu time    0.0009: real time    0.0009
    --------------------------------------------
      LOOP:  cpu time   12.0394: real time   12.0433

 eigenvalue-minimisations  :  7510
 total energy-change (2. order) :-0.4777375E+02  (-0.4584613E+02)
 number of electron      10.0000003 magnetization      -0.0000004     -0.0000004      0.0000001
 augmentation part       10.0000003 magnetization      -0.0000004     -0.0000004      0.0000001

 Free energy of the ion-electron system (eV)
  ---------------------------------------------------
  alpha Z        PSCENC =         0.95896536
  Ewald energy   TEWEN  =       111.53607347
  -Hartree energ DENC   =      -368.95544704
  -exchange      EXHF   =         0.00000000
  -V(xc)+E(xc)   XCENC  =      -220.49624639
  PAW double counting   =       540.63545300     -307.16334144
  entropy T*S    EENTRO =         0.00000000
  eigenvalues    EBANDS =       -60.20419110
  atomic energy  EATOM  =       301.62637419
  Solvation  Ediel_sol  =         0.00000000
  ---------------------------------------------------
  free energy    TOTEN  =        -2.06235994 eV

  energy without entropy =       -2.06235994  energy(sigma->0) =       -2.06235994


--------------------------------------------------------------------------------------------------------




----------------------------------------- Iteration    1(   3)  ---------------------------------------


     EDDAV:  cpu time   10.7688: real time   10.7698
       DOS:  cpu time    0.0005: real time    0.0005
    --------------------------------------------
      LOOP:  cpu time   10.7698: real time   10.7714

 eigenvalue-minimisations  :  7120
 total energy-change (2. order) :-0.6323124E+01  (-0.6266145E+01)
 number of electron      10.0000003 magnetization      -0.0000004     -0.0000004      0.0000001
 augmentation part       10.0000003 magnetization      -0.0000004     -0.0000004      0.0000001

 Free energy of the ion-electron system (eV)
  ---------------------------------------------------
  alpha Z        PSCENC =         0.95896536
  Ewald energy   TEWEN  =       111.53607347
  -Hartree energ DENC   =      -368.95544704
  -exchange      EXHF   =         0.00000000
  -V(xc)+E(xc)   XCENC  =      -220.49624639
  PAW double counting   =       540.63545300     -307.16334144
  entropy T*S    EENTRO =         0.00000000
  eigenvalues    EBANDS =       -66.52731461
  atomic energy  EATOM  =       301.62637419
  Solvation  Ediel_sol  =         0.00000000
  ---------------------------------------------------
  free energy    TOTEN  =        -8.38548346 eV

  energy without entropy =       -8.38548346  energy(sigma->0) =       -8.38548346


--------------------------------------------------------------------------------------------------------




----------------------------------------- Iteration    1(   4)  ---------------------------------------


     EDDAV:  cpu time   11.8732: real time   11.8739
       DOS:  cpu time    0.0006: real time    0.0006
    --------------------------------------------
      LOOP:  cpu time   11.8742: real time   11.8754

 eigenvalue-minimisations  :  7574
 total energy-change (2. order) :-0.3404933E+00  (-0.3402268E+00)
 number of electron      10.0000003 magnetization      -0.0000004     -0.0000004      0.0000001
 augmentation part       10.0000003 magnetization      -0.0000004     -0.0000004      0.0000001

 Free energy of the ion-electron system (eV)
  ---------------------------------------------------
  alpha Z        PSCENC =         0.95896536
  Ewald energy   TEWEN  =       111.53607347
  -Hartree energ DENC   =      -368.95544704
  -exchange      EXHF   =         0.00000000
  -V(xc)+E(xc)   XCENC  =      -220.49624639
  PAW double counting   =       540.63545300     -307.16334144
  entropy T*S    EENTRO =         0.00000000
  eigenvalues    EBANDS =       -66.86780793
  atomic energy  EATOM  =       301.62637419
  Solvation  Ediel_sol  =         0.00000000
  ---------------------------------------------------
  free energy    TOTEN  =        -8.72597677 eV

  energy without entropy =       -8.72597677  energy(sigma->0) =       -8.72597677


--------------------------------------------------------------------------------------------------------




----------------------------------------- Iteration    1(   5)  ---------------------------------------


     EDDAV:  cpu time   12.2687: real time   12.2709
       DOS:  cpu time    0.0008: real time    0.0008
    --------------------------------------------
      LOOP:  cpu time   12.2701: real time   12.2728

 eigenvalue-minimisations  :  7616
 total energy-change (2. order) :-0.3599071E-02  (-0.3598957E-02)
 number of electron      10.0000003 magnetization      -0.0000004     -0.0000004      0.0000001
 augmentation part       10.0000003 magnetization      -0.0000004     -0.0000004      0.0000001

 Free energy of the ion-electron system (eV)
  ---------------------------------------------------
  alpha Z        PSCENC =         0.95896536
  Ewald energy   TEWEN  =       111.53607347
  -Hartree energ DENC   =      -368.95544704
  -exchange      EXHF   =         0.00000000
  -V(xc)+E(xc)   XCENC  =      -220.49624639
  PAW double counting   =       540.63545300     -307.16334144
  entropy T*S    EENTRO =         0.00000000
  eigenvalues    EBANDS =       -66.87140700
  atomic energy  EATOM  =       301.62637419
  Solvation  Ediel_sol  =         0.00000000
  ---------------------------------------------------
  free energy    TOTEN  =        -8.72957585 eV

  energy without entropy =       -8.72957585  energy(sigma->0) =       -8.72957585


--------------------------------------------------------------------------------------------------------




----------------------------------------- Iteration    1(   6)  ---------------------------------------


     EDDAV:  cpu time   12.0054: real time   12.0161
       DOS:  cpu time    0.0005: real time    0.0005
    --------------------------------------------
      LOOP:  cpu time   12.0063: real time   12.0175

 eigenvalue-minimisations  :  7624
 total energy-change (2. order) :-0.1131400E-03  (-0.1131395E-03)
 number of electron      10.0000003 magnetization      -0.0000004     -0.0000004      0.0000001
 augmentation part       10.0000003 magnetization      -0.0000004     -0.0000004      0.0000001

 Free energy of the ion-electron system (eV)
  ---------------------------------------------------
  alpha Z        PSCENC =         0.95896536
  Ewald energy   TEWEN  =       111.53607347
  -Hartree energ DENC   =      -368.95544704
  -exchange      EXHF   =         0.00000000
  -V(xc)+E(xc)   XCENC  =      -220.49624639
  PAW double counting   =       540.63545300     -307.16334144
  entropy T*S    EENTRO =         0.00000000
  eigenvalues    EBANDS =       -66.87152014
  atomic energy  EATOM  =       301.62637419
  Solvation  Ediel_sol  =         0.00000000
  ---------------------------------------------------
  free energy    TOTEN  =        -8.72968899 eV

  energy without entropy =       -8.72968899  energy(sigma->0) =       -8.72968899


--------------------------------------------------------------------------------------------------------




----------------------------------------- Iteration    1(   7)  ---------------------------------------


     EDDAV:  cpu time   11.3744: real time   11.3855
       DOS:  cpu time    0.0005: real time    0.0005
    --------------------------------------------
      LOOP:  cpu time   11.3754: real time   11.3870

 eigenvalue-minimisations  :  7338
 total energy-change (2. order) :-0.1559476E-05  (-0.1559477E-05)
 number of electron      10.0000003 magnetization      -0.0000004     -0.0000004      0.0000001
 augmentation part       10.0000003 magnetization      -0.0000004     -0.0000004      0.0000001

 Free energy of the ion-electron system (eV)
  ---------------------------------------------------
  alpha Z        PSCENC =         0.95896536
  Ewald energy   TEWEN  =       111.53607347
  -Hartree energ DENC   =      -368.95544704
  -exchange      EXHF   =         0.00000000
  -V(xc)+E(xc)   XCENC  =      -220.49624639
  PAW double counting   =       540.63545300     -307.16334144
  entropy T*S    EENTRO =         0.00000000
  eigenvalues    EBANDS =       -66.87152170
  atomic energy  EATOM  =       301.62637419
  Solvation  Ediel_sol  =         0.00000000
  ---------------------------------------------------
  free energy    TOTEN  =        -8.72969054 eV

  energy without entropy =       -8.72969054  energy(sigma->0) =       -8.72969054


--------------------------------------------------------------------------------------------------------




----------------------------------------- Iteration    1(   8)  ---------------------------------------


     EDDAV:  cpu time    9.8782: real time    9.8851
       DOS:  cpu time    0.0005: real time    0.0005
    --------------------------------------------
      LOOP:  cpu time    9.8792: real time    9.8867

 eigenvalue-minimisations  :  6130
 total energy-change (2. order) :-0.6433947E-07  (-0.6433963E-07)
 number of electron      10.0000003 magnetization      -0.0000004     -0.0000004      0.0000001
 augmentation part       10.0000003 magnetization      -0.0000004     -0.0000004      0.0000001

 Free energy of the ion-electron system (eV)
  ---------------------------------------------------
  alpha Z        PSCENC =         0.95896536
  Ewald energy   TEWEN  =       111.53607347
  -Hartree energ DENC   =      -368.95544704
  -exchange      EXHF   =         0.00000000
  -V(xc)+E(xc)   XCENC  =      -220.49624639
  PAW double counting   =       540.63545300     -307.16334144
  entropy T*S    EENTRO =         0.00000000
  eigenvalues    EBANDS =       -66.87152176
  atomic energy  EATOM  =       301.62637419
  Solvation  Ediel_sol  =         0.00000000
  ---------------------------------------------------
  free energy    TOTEN  =        -8.72969061 eV

  energy without entropy =       -8.72969061  energy(sigma->0) =       -8.72969061


--------------------------------------------------------------------------------------------------------




 average (electrostatic) potential at core
  the test charge radii are     1.4024
  (the norm of the test charge is              1.0000)
       1 -67.9534       2 -67.9534
 
 
 
 E-fermi :  -1.2599     XC(G=0):  -3.5787     alpha+bet : -2.8239


 k-point     1 :       0.0000    0.0000    0.0000
  band No.  band energies     occupation 
      1     -13.6315      1.00000
      2     -13.6315      1.00000
      3      -9.8662      1.00000
      4      -9.8662      1.00000
      5      -3.2708      1.00000
      6      -3.2708      1.00000
      7      -1.4332      1.00000
      8      -1.4332      1.00000
      9      -1.4314      1.00000
     10      -1.4314      1.00000
     11      -0.8389      0.00000
     12      -0.8389      0.00000
     13       0.3918      0.00000
     14       0.3919      0.00000
     15       1.6115      0.00000
     16       1.6115      0.00000
     17       2.1209      0.00000
     18       2.1210      0.00000

 k-point     2 :       0.0833    0.0000    0.0000
  band No.  band energies     occupation 
      1     -13.5733      1.00000
      2     -13.5733      1.00000
      3      -9.8918      1.00000
      4      -9.8918      1.00000
      5      -3.3847      1.00000
      6      -3.3847      1.00000
      7      -2.0684      1.00000
      8      -2.0684      1.00000
      9      -1.3490      1.00000
     10      -1.3490      1.00000
     11      -0.5608      0.00000
     12      -0.5608      0.00000
     13       0.5662      0.00000
     14       0.5662      0.00000
     15       1.4292      0.00000
     16       1.4292      0.00000
     17       2.2576      0.00000
     18       2.2577      0.00000

 k-point     3 :       0.1667    0.0000    0.0000
  band No.  band energies     occupation 
      1     -13.4015      1.00000
      2     -13.4015      1.00000
      3      -9.9811      1.00000
      4      -9.9811      1.00000
      5      -3.7439      1.00000
      6      -3.7439      1.00000
      7      -2.6335      1.00000
      8      -2.6335      1.00000
      9      -1.5734      1.00000
     10      -1.5734      1.00000
     11      -0.5228      0.00000
     12      -0.5228      0.00000
     13       0.9045      0.00000
     14       0.9045      0.00000
     15       1.4752      0.00000
     16       1.4752      0.00000
     17       2.4940      0.00000
     18       2.4941      0.00000

 k-point     4 :       0.2500    0.0000    0.0000
  band No.  band energies     occupation 
      1     -13.1272      1.00000
      2     -13.1272      1.00000
      3     -10.1629      1.00000
      4     -10.1629      1.00000
      5      -4.1994      1.00000
      6      -4.1994      1.00000
      7      -3.0573      1.00000
      8      -3.0573      1.00000
      9      -1.8397      1.00000
     10      -1.8397      1.00000
     11      -0.6562      0.00000
     12      -0.6562      0.00000
     13       1.0744      0.00000
     14       1.0744      0.00000
     15       1.7022      0.00000
     16       1.7022      0.00000
     17       2.8171      0.00000
     18       2.8172      0.00000

 k-point     5 :       0.3333    0.0000    0.0000
  band No.  band energies     occupation 
      1     -12.7756      1.00000
      2     -12.7756      1.00000
      3     -10.4506      1.00000
      4     -10.4506      1.00000
      5      -4.5226      1.00000
      6      -4.5226      1.00000
      7      -3.4282      1.00000
      8      -3.4282      1.00000
      9      -2.1414      1.00000
     10      -2.1414      1.00000
     11      -0.6032      0.00000
     12      -0.6032      0.00000
     13       1.0187      0.00000
     14       1.0187      0.00000
     15       1.7240      0.00000
     16       1.7240      0.00000
     17       3.1722      0.00000
     18       3.1723      0.00000

 k-point     6 :       0.4167    0.0000    0.0000
  band No.  band energies     occupation 
      1     -12.4108      1.00000
      2     -12.4108      1.00000
      3     -10.7895      1.00000
      4     -10.7895      1.00000
      5      -4.6514      1.00000
      6      -4.6514      1.00000
      7      -3.7270      1.00000
      8      -3.7270      1.00000
      9      -2.3783      1.00000
     10      -2.3783      1.00000
     11      -0.4235      0.00000
     12      -0.4235      0.00000
     13       0.8334      0.00000
     14       0.8334      0.00000
     15       1.6639      0.00000
     16       1.6639      0.00000
     17       3.3077      0.00000
     18       3.3077      0.00000

 k-point     7 :       0.5000    0.0000    0.0000
  band No.  band energies     occupation 
      1     -12.2204      1.00000
      2     -12.2204      1.00000
      3     -10.9750      1.00000
      4     -10.9750      1.00000
      5      -4.6675      1.00000
      6      -4.6674      1.00000
      7      -3.8534      1.00000
      8      -3.8534      1.00000
      9      -2.4654      1.00000
     10      -2.4654      1.00000
     11      -0.3173      0.00000
     12      -0.3173      0.00000
     13       0.7256      0.00000
     14       0.7256      0.00000
     15       1.6389      0.00000
     16       1.6389      0.00000
     17       3.2795      0.00000
     18       3.2795      0.00000

 k-point     8 :      -0.4167    0.0000    0.0000
  band No.  band energies     occupation 
      1     -12.4108      1.00000
      2     -12.4108      1.00000
      3     -10.7895      1.00000
      4     -10.7895      1.00000
      5      -4.6514      1.00000
      6      -4.6514      1.00000
      7      -3.7270      1.00000
      8      -3.7270      1.00000
      9      -2.3783      1.00000
     10      -2.3783      1.00000
     11      -0.4235      0.00000
     12      -0.4235      0.00000
     13       0.8334      0.00000
     14       0.8334      0.00000
     15       1.6639      0.00000
     16       1.6639      0.00000
     17       3.3077      0.00000
     18       3.3077      0.00000

 k-point     9 :      -0.3333    0.0000    0.0000
  band No.  band energies     occupation 
      1     -12.7756      1.00000
      2     -12.7756      1.00000
      3     -10.4506      1.00000
      4     -10.4506      1.00000
      5      -4.5226      1.00000
      6      -4.5226      1.00000
      7      -3.4282      1.00000
      8      -3.4282      1.00000
      9      -2.1414      1.00000
     10      -2.1414      1.00000
     11      -0.6032      0.00000
     12      -0.6032      0.00000
     13       1.0187      0.00000
     14       1.0187      0.00000
     15       1.7240      0.00000
     16       1.7240      0.00000
     17       3.1722      0.00000
     18       3.1833      0.00000

 k-point    10 :      -0.2500    0.0000    0.0000
  band No.  band energies     occupation 
      1     -13.1272      1.00000
      2     -13.1272      1.00000
      3     -10.1629      1.00000
      4     -10.1629      1.00000
      5      -4.1994      1.00000
      6      -4.1994      1.00000
      7      -3.0573      1.00000
      8      -3.0573      1.00000
      9      -1.8397      1.00000
     10      -1.8397      1.00000
     11      -0.6562      0.00000
     12      -0.6562      0.00000
     13       1.0744      0.00000
     14       1.0744      0.00000
     15       1.7022      0.00000
     16       1.7022      0.00000
     17       2.8171      0.00000
     18       2.8172      0.00000

 k-point    11 :      -0.1667    0.0000    0.0000
  band No.  band energies     occupation 
      1     -13.4015      1.00000
      2     -13.4015      1.00000
      3      -9.9811      1.00000
      4      -9.9811      1.00000
      5      -3.7439      1.00000
      6      -3.7439      1.00000
      7      -2.6335      1.00000
      8      -2.6335      1.00000
      9      -1.5734      1.00000
     10      -1.5734      1.00000
     11      -0.5228      0.00000
     12      -0.5228      0.00000
     13       0.9045      0.00000
     14       0.9045      0.00000
     15       1.4752      0.00000
     16       1.4752      0.00000
     17       2.4940      0.00000
     18       2.4941      0.00000

 k-point    12 :      -0.0833    0.0000    0.0000
  band No.  band energies     occupation 
      1     -13.5733      1.00000
      2     -13.5733      1.00000
      3      -9.8918      1.00000
      4      -9.8918      1.00000
      5      -3.3847      1.00000
      6      -3.3847      1.00000
      7      -2.0684      1.00000
      8      -2.0684      1.00000
      9      -1.3490      1.00000
     10      -1.3490      1.00000
     11      -0.5608      0.00000
     12      -0.5608      0.00000
     13       0.5662      0.00000
     14       0.5662      0.00000
     15       1.4292      0.00000
     16       1.4292      0.00000
     17       2.2576      0.00000
     18       2.2577      0.00000

 k-point    13 :       0.0000    0.0833    0.0000
  band No.  band energies     occupation 
      1     -13.5733      1.00000
      2     -13.5733      1.00000
      3      -9.8918      1.00000
      4      -9.8918      1.00000
      5      -3.3847      1.00000
      6      -3.3847      1.00000
      7      -2.0684      1.00000
      8      -2.0684      1.00000
      9      -1.3490      1.00000
     10      -1.3490      1.00000
     11      -0.5608      0.00000
     12      -0.5608      0.00000
     13       0.5662      0.00000
     14       0.5662      0.00000
     15       1.4292      0.00000
     16       1.4292      0.00000
     17       2.2576      0.00000
     18       2.2577      0.00000

 k-point    14 :       0.0833    0.0833    0.0000
  band No.  band energies     occupation 
      1     -13.5733      1.00000
      2     -13.5733      1.00000
      3      -9.8918      1.00000
      4      -9.8918      1.00000
      5      -3.3847      1.00000
      6      -3.3847      1.00000
      7      -2.0684      1.00000
      8      -2.0684      1.00000
      9      -1.3490      1.00000
     10      -1.3490      1.00000
     11      -0.5608      0.00000
     12      -0.5608      0.00000
     13       0.5662      0.00000
     14       0.5662      0.00000
     15       1.4292      0.00000
     16       1.4292      0.00000
     17       2.2576      0.00000
     18       2.2577      0.00000

 k-point    15 :       0.1667    0.0833    0.0000
  band No.  band energies     occupation 
      1     -13.4582      1.00000
      2     -13.4582      1.00000
      3      -9.9493      1.00000
      4      -9.9493      1.00000
      5      -3.6187      1.00000
      6      -3.6187      1.00000
      7      -2.5056      1.00000
      8      -2.5056      1.00000
      9      -1.5853      1.00000
     10      -1.5853      1.00000
     11      -0.3267      0.00000
     12      -0.3267      0.00000
     13       0.6934      0.00000
     14       0.6934      0.00000
     15       1.4482      0.00000
     16       1.4482      0.00000
     17       2.4240      0.00000
     18       2.4241      0.00000

 k-point    16 :       0.2500    0.0833    0.0000
  band No.  band energies     occupation 
      1     -13.2346      1.00000
      2     -13.2346      1.00000
      3     -10.0854      1.00000
      4     -10.0854      1.00000
      5      -4.0071      1.00000
      6      -4.0071      1.00000
      7      -2.9807      1.00000
      8      -2.9807      1.00000
      9      -1.8668      1.00000
     10      -1.8668      1.00000
     11      -0.2961      0.00000
     12      -0.2961      0.00000
     13       0.8452      0.00000
     14       0.8452      0.00000
     15       1.6315      0.00000
     16       1.6315      0.00000
     17       2.6984      0.00000
     18       2.6985      0.00000

 k-point    17 :       0.3333    0.0833    0.0000
  band No.  band energies     occupation 
      1     -12.9186      1.00000
      2     -12.9186      1.00000
      3     -10.3239      1.00000
      4     -10.3239      1.00000
      5      -4.3674      1.00000
      6      -4.3674      1.00000
      7      -3.3988      1.00000
      8      -3.3988      1.00000
      9      -2.1325      1.00000
     10      -2.1325      1.00000
     11      -0.3513      0.00000
     12      -0.3513      0.00000
     13       0.9912      0.00000
     14       0.9912      0.00000
     15       1.6438      0.00000
     16       1.6438      0.00000
     17       3.0644      0.00000
     18       3.0646      0.00000

 k-point    18 :       0.4167    0.0833    0.0000
  band No.  band energies     occupation 
      1     -12.5483      1.00000
      2     -12.5483      1.00000
      3     -10.6513      1.00000
      4     -10.6513      1.00000
      5      -4.5828      1.00000
      6      -4.5828      1.00000
      7      -3.7073      1.00000
      8      -3.7073      1.00000
      9      -2.4132      1.00000
     10      -2.4132      1.00000
     11      -0.2501      0.00000
     12      -0.2501      0.00000
     13       0.9336      0.00000
     14       0.9336      0.00000
     15       1.5345      0.00000
     16       1.5345      0.00000
     17       3.3909      0.00000
     18       3.3910      0.00000

 k-point    19 :       0.5000    0.0833    0.0000
  band No.  band energies     occupation 
      1     -12.2320      1.00000
      2     -12.2320      1.00000
      3     -10.9541      1.00000
      4     -10.9541      1.00000
      5      -4.6594      1.00000
      6      -4.6594      1.00000
      7      -3.8746      1.00000
      8      -3.8746      1.00000
      9      -2.6047      1.00000
     10      -2.6047      1.00000
     11      -0.0840      0.00000
     12      -0.0840      0.00000
     13       0.7630      0.00000
     14       0.7630      0.00000
     15       1.4930      0.00000
     16       1.4930      0.00000
     17       3.3792      0.00000
     18       3.3792      0.00000

 k-point    20 :      -0.4167    0.0833    0.0000
  band No.  band energies     occupation 
      1     -12.2320      1.00000
      2     -12.2320      1.00000
      3     -10.9541      1.00000
      4     -10.9541      1.00000
      5      -4.6594      1.00000
      6      -4.6594      1.00000
      7      -3.8746      1.00000
      8      -3.8746      1.00000
      9      -2.6047      1.00000
     10      -2.6047      1.00000
     11      -0.0840      0.00000
     12      -0.0840      0.00000
     13       0.7630      0.00000
     14       0.7630      0.00000
     15       1.4930      0.00000
     16       1.4930      0.00000
     17       3.3792      0.00000
     18       3.3792      0.00000

 k-point    21 :      -0.3333    0.0833    0.0000
  band No.  band energies     occupation 
      1     -12.5483      1.00000
      2     -12.5483      1.00000
      3     -10.6513      1.00000
      4     -10.6513      1.00000
      5      -4.5828      1.00000
      6      -4.5828      1.00000
      7      -3.7073      1.00000
      8      -3.7073      1.00000
      9      -2.4132      1.00000
     10      -2.4132      1.00000
     11      -0.2501      0.00000
     12      -0.2501      0.00000
     13       0.9336      0.00000
     14       0.9336      0.00000
     15       1.5345      0.00000
     16       1.5345      0.00000
     17       3.3909      0.00000
     18       3.3911      0.00000

 k-point    22 :      -0.2500    0.0833    0.0000
  band No.  band energies     occupation 
      1     -12.9186      1.00000
      2     -12.9186      1.00000
      3     -10.3239      1.00000
      4     -10.3239      1.00000
      5      -4.3674      1.00000
      6      -4.3674      1.00000
      7      -3.3988      1.00000
      8      -3.3988      1.00000
      9      -2.1325      1.00000
     10      -2.1325      1.00000
     11      -0.3513      0.00000
     12      -0.3513      0.00000
     13       0.9912      0.00000
     14       0.9912      0.00000
     15       1.6438      0.00000
     16       1.6438      0.00000
     17       3.0644      0.00000
     18       3.0646      0.00000

 k-point    23 :      -0.1667    0.0833    0.0000
  band No.  band energies     occupation 
      1     -13.2346      1.00000
      2     -13.2346      1.00000
      3     -10.0854      1.00000
      4     -10.0854      1.00000
      5      -4.0071      1.00000
      6      -4.0071      1.00000
      7      -2.9807      1.00000
      8      -2.9807      1.00000
      9      -1.8668      1.00000
     10      -1.8668      1.00000
     11      -0.2961      0.00000
     12      -0.2961      0.00000
     13       0.8452      0.00000
     14       0.8452      0.00000
     15       1.6315      0.00000
     16       1.6315      0.00000
     17       2.6984      0.00000
     18       2.6985      0.00000

 k-point    24 :      -0.0833    0.0833    0.0000
  band No.  band energies     occupation 
      1     -13.4582      1.00000
      2     -13.4582      1.00000
      3      -9.9493      1.00000
      4      -9.9493      1.00000
      5      -3.6187      1.00000
      6      -3.6187      1.00000
      7      -2.5056      1.00000
      8      -2.5056      1.00000
      9      -1.5853      1.00000
     10      -1.5853      1.00000
     11      -0.3267      0.00000
     12      -0.3267      0.00000
     13       0.6934      0.00000
     14       0.6934      0.00000
     15       1.4482      0.00000
     16       1.4482      0.00000
     17       2.4240      0.00000
     18       2.4241      0.00000

 k-point    25 :       0.0000    0.1667    0.0000
  band No.  band energies     occupation 
      1     -13.4015      1.00000
      2     -13.4015      1.00000
      3      -9.9811      1.00000
      4      -9.9811      1.00000
      5      -3.7439      1.00000
      6      -3.7439      1.00000
      7      -2.6335      1.00000
      8      -2.6335      1.00000
      9      -1.5734      1.00000
     10      -1.5734      1.00000
     11      -0.5228      0.00000
     12      -0.5228      0.00000
     13       0.9045      0.00000
     14       0.9045      0.00000
     15       1.4752      0.00000
     16       1.4752      0.00000
     17       2.4940      0.00000
     18       2.4941      0.00000

 k-point    26 :       0.0833    0.1667    0.0000
  band No.  band energies     occupation 
      1     -13.4582      1.00000
      2     -13.4582      1.00000
      3      -9.9493      1.00000
      4      -9.9493      1.00000
      5      -3.6187      1.00000
      6      -3.6187      1.00000
      7      -2.5056      1.00000
      8      -2.5056      1.00000
      9      -1.5853      1.00000
     10      -1.5853      1.00000
     11      -0.3267      0.00000
     12      -0.3267      0.00000
     13       0.6934      0.00000
     14       0.6934      0.00000
     15       1.4482      0.00000
     16       1.4482      0.00000
     17       2.4240      0.00000
     18       2.4241      0.00000

 k-point    27 :       0.1667    0.1667    0.0000
  band No.  band energies     occupation 
      1     -13.4015      1.00000
      2     -13.4015      1.00000
      3      -9.9811      1.00000
      4      -9.9811      1.00000
      5      -3.7439      1.00000
      6      -3.7439      1.00000
      7      -2.6335      1.00000
      8      -2.6335      1.00000
      9      -1.5734      1.00000
     10      -1.5734      1.00000
     11      -0.5228      0.00000
     12      -0.5228      0.00000
     13       0.9045      0.00000
     14       0.9045      0.00000
     15       1.4752      0.00000
     16       1.4752      0.00000
     17       2.4940      0.00000
     18       2.4941      0.00000

 k-point    28 :       0.2500    0.1667    0.0000
  band No.  band energies     occupation 
      1     -13.2346      1.00000
      2     -13.2346      1.00000
      3     -10.0854      1.00000
      4     -10.0854      1.00000
      5      -4.0071      1.00000
      6      -4.0071      1.00000
      7      -2.9807      1.00000
      8      -2.9807      1.00000
      9      -1.8668      1.00000
     10      -1.8668      1.00000
     11      -0.2961      0.00000
     12      -0.2961      0.00000
     13       0.8452      0.00000
     14       0.8452      0.00000
     15       1.6315      0.00000
     16       1.6315      0.00000
     17       2.6984      0.00000
     18       2.6985      0.00000

 k-point    29 :       0.3333    0.1667    0.0000
  band No.  band energies     occupation 
      1     -12.9674      1.00000
      2     -12.9674      1.00000
      3     -10.2805      1.00000
      4     -10.2805      1.00000
      5      -4.2491      1.00000
      6      -4.2491      1.00000
      7      -3.4860      1.00000
      8      -3.4860      1.00000
      9      -2.1678      1.00000
     10      -2.1678      1.00000
     11       0.0327      0.00000
     12       0.0327      0.00000
     13       0.7203      0.00000
     14       0.7203      0.00000
     15       1.6718      0.00000
     16       1.6718      0.00000
     17       3.0253      0.00000
     18       3.0254      0.00000

 k-point    30 :       0.4167    0.1667    0.0000
  band No.  band energies     occupation 
      1     -12.6224      1.00000
      2     -12.6224      1.00000
      3     -10.5716      1.00000
      4     -10.5716      1.00000
      5      -4.4389      1.00000
      6      -4.4389      1.00000
      7      -3.8780      1.00000
      8      -3.8780      1.00000
      9      -2.4574      1.00000
     10      -2.4574      1.00000
     11       0.1406      0.00000
     12       0.1406      0.00000
     13       0.7207      0.00000
     14       0.7207      0.00000
     15       1.6203      0.00000
     16       1.6203      0.00000
     17       3.4408      0.00000
     18       3.4416      0.00000

 k-point    31 :       0.5000    0.1667    0.0000
  band No.  band energies     occupation 
      1     -12.2541      1.00000
      2     -12.2541      1.00000
      3     -10.9130      1.00000
      4     -10.9130      1.00000
      5      -4.6194      1.00000
      6      -4.6194      1.00000
      7      -3.9866      1.00000
      8      -3.9866      1.00000
      9      -2.7477      1.00000
     10      -2.7477      1.00000
     11       0.1521      0.00000
     12       0.1521      0.00000
     13       0.8061      0.00000
     14       0.8061      0.00000
     15       1.4962      0.00000
     16       1.4962      0.00000
     17       3.6883      0.00000
     18       3.6883      0.00000

 k-point    32 :      -0.4167    0.1667    0.0000
  band No.  band energies     occupation 
      1     -12.0479      1.00000
      2     -12.0479      1.00000
      3     -11.1121      1.00000
      4     -11.1121      1.00000
      5      -4.6998      1.00000
      6      -4.6998      1.00000
      7      -3.9717      1.00000
      8      -3.9717      1.00000
      9      -2.8862      1.00000
     10      -2.8862      1.00000
     11       0.1471      0.00000
     12       0.1471      0.00000
     13       0.8842      0.00000
     14       0.8842      0.00000
     15       1.4095      0.00000
     16       1.4095      0.00000
     17       3.6494      0.00000
     18       3.6494      0.00000

 k-point    33 :      -0.3333    0.1667    0.0000
  band No.  band energies     occupation 
      1     -12.2541      1.00000
      2     -12.2541      1.00000
      3     -10.9130      1.00000
      4     -10.9130      1.00000
      5      -4.6194      1.00000
      6      -4.6194      1.00000
      7      -3.9866      1.00000
      8      -3.9866      1.00000
      9      -2.7477      1.00000
     10      -2.7477      1.00000
     11       0.1521      0.00000
     12       0.1521      0.00000
     13       0.8061      0.00000
     14       0.8061      0.00000
     15       1.4962      0.00000
     16       1.4962      0.00000
     17       3.6883      0.00000
     18       3.6883      0.00000

 k-point    34 :      -0.2500    0.1667    0.0000
  band No.  band energies     occupation 
      1     -12.6224      1.00000
      2     -12.6224      1.00000
      3     -10.5716      1.00000
      4     -10.5716      1.00000
      5      -4.4389      1.00000
      6      -4.4389      1.00000
      7      -3.8780      1.00000
      8      -3.8780      1.00000
      9      -2.4574      1.00000
     10      -2.4574      1.00000
     11       0.1406      0.00000
     12       0.1406      0.00000
     13       0.7207      0.00000
     14       0.7207      0.00000
     15       1.6203      0.00000
     16       1.6203      0.00000
     17       3.4408      0.00000
     18       3.4462      0.00000

 k-point    35 :      -0.1667    0.1667    0.0000
  band No.  band energies     occupation 
      1     -12.9674      1.00000
      2     -12.9674      1.00000
      3     -10.2805      1.00000
      4     -10.2805      1.00000
      5      -4.2491      1.00000
      6      -4.2491      1.00000
      7      -3.4860      1.00000
      8      -3.4860      1.00000
      9      -2.1678      1.00000
     10      -2.1678      1.00000
     11       0.0327      0.00000
     12       0.0327      0.00000
     13       0.7203      0.00000
     14       0.7203      0.00000
     15       1.6718      0.00000
     16       1.6718      0.00000
     17       3.0253      0.00000
     18       3.0254      0.00000

 k-point    36 :      -0.0833    0.1667    0.0000
  band No.  band energies     occupation 
      1     -13.2346      1.00000
      2     -13.2346      1.00000
      3     -10.0854      1.00000
      4     -10.0854      1.00000
      5      -4.0071      1.00000
      6      -4.0071      1.00000
      7      -2.9807      1.00000
      8      -2.9807      1.00000
      9      -1.8668      1.00000
     10      -1.8668      1.00000
     11      -0.2961      0.00000
     12      -0.2961      0.00000
     13       0.8452      0.00000
     14       0.8452      0.00000
     15       1.6315      0.00000
     16       1.6315      0.00000
     17       2.6984      0.00000
     18       2.6985      0.00000

 k-point    37 :       0.0000    0.2500    0.0000
  band No.  band energies     occupation 
      1     -13.1272      1.00000
      2     -13.1272      1.00000
      3     -10.1629      1.00000
      4     -10.1629      1.00000
      5      -4.1994      1.00000
      6      -4.1994      1.00000
      7      -3.0573      1.00000
      8      -3.0573      1.00000
      9      -1.8397      1.00000
     10      -1.8397      1.00000
     11      -0.6562      0.00000
     12      -0.6562      0.00000
     13       1.0744      0.00000
     14       1.0744      0.00000
     15       1.7022      0.00000
     16       1.7022      0.00000
     17       2.8171      0.00000
     18       2.8172      0.00000

 k-point    38 :       0.0833    0.2500    0.0000
  band No.  band energies     occupation 
      1     -13.2346      1.00000
      2     -13.2346      1.00000
      3     -10.0854      1.00000
      4     -10.0854      1.00000
      5      -4.0071      1.00000
      6      -4.0071      1.00000
      7      -2.9807      1.00000
      8      -2.9807      1.00000
      9      -1.8668      1.00000
     10      -1.8668      1.00000
     11      -0.2961      0.00000
     12      -0.2961      0.00000
     13       0.8452      0.00000
     14       0.8452      0.00000
     15       1.6315      0.00000
     16       1.6315      0.00000
     17       2.6984      0.00000
     18       2.6985      0.00000

 k-point    39 :       0.1667    0.2500    0.0000
  band No.  band energies     occupation 
      1     -13.2346      1.00000
      2     -13.2346      1.00000
      3     -10.0854      1.00000
      4     -10.0854      1.00000
      5      -4.0071      1.00000
      6      -4.0071      1.00000
      7      -2.9807      1.00000
      8      -2.9807      1.00000
      9      -1.8668      1.00000
     10      -1.8668      1.00000
     11      -0.2961      0.00000
     12      -0.2961      0.00000
     13       0.8452      0.00000
     14       0.8452      0.00000
     15       1.6315      0.00000
     16       1.6315      0.00000
     17       2.6984      0.00000
     18       2.6985      0.00000

 k-point    40 :       0.2500    0.2500    0.0000
  band No.  band energies     occupation 
      1     -13.1272      1.00000
      2     -13.1272      1.00000
      3     -10.1629      1.00000
      4     -10.1629      1.00000
      5      -4.1994      1.00000
      6      -4.1994      1.00000
      7      -3.0573      1.00000
      8      -3.0573      1.00000
      9      -1.8397      1.00000
     10      -1.8397      1.00000
     11      -0.6562      0.00000
     12      -0.6562      0.00000
     13       1.0744      0.00000
     14       1.0744      0.00000
     15       1.7022      0.00000
     16       1.7022      0.00000
     17       2.8171      0.00000
     18       2.8173      0.00000

 k-point    41 :       0.3333    0.2500    0.0000
  band No.  band energies     occupation 
      1     -12.9186      1.00000
      2     -12.9186      1.00000
      3     -10.3239      1.00000
      4     -10.3239      1.00000
      5      -4.3674      1.00000
      6      -4.3674      1.00000
      7      -3.3988      1.00000
      8      -3.3988      1.00000
      9      -2.1325      1.00000
     10      -2.1325      1.00000
     11      -0.3513      0.00000
     12      -0.3513      0.00000
     13       0.9912      0.00000
     14       0.9912      0.00000
     15       1.6438      0.00000
     16       1.6438      0.00000
     17       3.0644      0.00000
     18       3.0645      0.00000

 k-point    42 :       0.4167    0.2500    0.0000
  band No.  band energies     occupation 
      1     -12.6224      1.00000
      2     -12.6224      1.00000
      3     -10.5716      1.00000
      4     -10.5716      1.00000
      5      -4.4389      1.00000
      6      -4.4389      1.00000
      7      -3.8780      1.00000
      8      -3.8780      1.00000
      9      -2.4574      1.00000
     10      -2.4574      1.00000
     11       0.1406      0.00000
     12       0.1406      0.00000
     13       0.7207      0.00000
     14       0.7207      0.00000
     15       1.6203      0.00000
     16       1.6203      0.00000
     17       3.4409      0.00000
     18       3.4420      0.00000

 k-point    43 :       0.5000    0.2500    0.0000
  band No.  band energies     occupation 
      1     -12.2647      1.00000
      2     -12.2647      1.00000
      3     -10.8928      1.00000
      4     -10.8928      1.00000
      5      -4.5780      1.00000
      6      -4.5780      1.00000
      7      -4.0849      1.00000
      8      -4.0849      1.00000
      9      -2.7698      1.00000
     10      -2.7698      1.00000
     11       0.1772      0.00000
     12       0.1772      0.00000
     13       0.7520      0.00000
     14       0.7520      0.00000
     15       1.7073      0.00000
     16       1.7073      0.00000
     17       3.9073      0.00000
     18       3.9096      0.00000

 k-point    44 :      -0.4167    0.2500    0.0000
  band No.  band energies     occupation 
      1     -11.9169      1.00000
      2     -11.9169      1.00000
      3     -11.2219      1.00000
      4     -11.2219      1.00000
      5      -4.7709      1.00000
      6      -4.7709      1.00000
      7      -3.9864      1.00000
      8      -3.9864      1.00000
      9      -3.0244      1.00000
     10      -3.0244      1.00000
     11      -0.0267      0.00000
     12      -0.0267      0.00000
     13       1.0690      0.00000
     14       1.0690      0.00000
     15       1.6439      0.00000
     16       1.6439      0.00000
     17       4.1858      0.00000
     18       4.1858      0.00000

 k-point    45 :      -0.3333    0.2500    0.0000
  band No.  band energies     occupation 
      1     -11.9169      1.00000
      2     -11.9169      1.00000
      3     -11.2219      1.00000
      4     -11.2219      1.00000
      5      -4.7709      1.00000
      6      -4.7709      1.00000
      7      -3.9864      1.00000
      8      -3.9864      1.00000
      9      -3.0244      1.00000
     10      -3.0244      1.00000
     11      -0.0267      0.00000
     12      -0.0267      0.00000
     13       1.0690      0.00000
     14       1.0690      0.00000
     15       1.6439      0.00000
     16       1.6439      0.00000
     17       4.1858      0.00000
     18       4.1858      0.00000

 k-point    46 :      -0.2500    0.2500    0.0000
  band No.  band energies     occupation 
      1     -12.2647      1.00000
      2     -12.2647      1.00000
      3     -10.8928      1.00000
      4     -10.8928      1.00000
      5      -4.5780      1.00000
      6      -4.5780      1.00000
      7      -4.0849      1.00000
      8      -4.0849      1.00000
      9      -2.7698      1.00000
     10      -2.7698      1.00000
     11       0.1772      0.00000
     12       0.1772      0.00000
     13       0.7520      0.00000
     14       0.7520      0.00000
     15       1.7073      0.00000
     16       1.7073      0.00000
     17       3.9071      0.00000
     18       3.9073      0.00000

 k-point    47 :      -0.1667    0.2500    0.0000
  band No.  band energies     occupation 
      1     -12.6224      1.00000
      2     -12.6224      1.00000
      3     -10.5716      1.00000
      4     -10.5716      1.00000
      5      -4.4389      1.00000
      6      -4.4389      1.00000
      7      -3.8780      1.00000
      8      -3.8780      1.00000
      9      -2.4574      1.00000
     10      -2.4574      1.00000
     11       0.1406      0.00000
     12       0.1406      0.00000
     13       0.7207      0.00000
     14       0.7207      0.00000
     15       1.6203      0.00000
     16       1.6203      0.00000
     17       3.4408      0.00000
     18       3.4422      0.00000

 k-point    48 :      -0.0833    0.2500    0.0000
  band No.  band energies     occupation 
      1     -12.9186      1.00000
      2     -12.9186      1.00000
      3     -10.3239      1.00000
      4     -10.3239      1.00000
      5      -4.3674      1.00000
      6      -4.3674      1.00000
      7      -3.3988      1.00000
      8      -3.3988      1.00000
      9      -2.1325      1.00000
     10      -2.1325      1.00000
     11      -0.3513      0.00000
     12      -0.3513      0.00000
     13       0.9912      0.00000
     14       0.9912      0.00000
     15       1.6438      0.00000
     16       1.6438      0.00000
     17       3.0645      0.00000
     18       3.0646      0.00000

 k-point    49 :       0.0000    0.3333    0.0000
  band No.  band energies     occupation 
      1     -12.7756      1.00000
      2     -12.7756      1.00000
      3     -10.4506      1.00000
      4     -10.4506      1.00000
      5      -4.5226      1.00000
      6      -4.5226      1.00000
      7      -3.4282      1.00000
      8      -3.4282      1.00000
      9      -2.1414      1.00000
     10      -2.1414      1.00000
     11      -0.6032      0.00000
     12      -0.6032      0.00000
     13       1.0187      0.00000
     14       1.0187      0.00000
     15       1.7240      0.00000
     16       1.7240      0.00000
     17       3.1722      0.00000
     18       3.1724      0.00000

 k-point    50 :       0.0833    0.3333    0.0000
  band No.  band energies     occupation 
      1     -12.9186      1.00000
      2     -12.9186      1.00000
      3     -10.3239      1.00000
      4     -10.3239      1.00000
      5      -4.3674      1.00000
      6      -4.3674      1.00000
      7      -3.3988      1.00000
      8      -3.3988      1.00000
      9      -2.1325      1.00000
     10      -2.1325      1.00000
     11      -0.3513      0.00000
     12      -0.3513      0.00000
     13       0.9912      0.00000
     14       0.9912      0.00000
     15       1.6438      0.00000
     16       1.6438      0.00000
     17       3.0644      0.00000
     18       3.0657      0.00000

 k-point    51 :       0.1667    0.3333    0.0000
  band No.  band energies     occupation 
      1     -12.9674      1.00000
      2     -12.9674      1.00000
      3     -10.2805      1.00000
      4     -10.2805      1.00000
      5      -4.2491      1.00000
      6      -4.2491      1.00000
      7      -3.4860      1.00000
      8      -3.4860      1.00000
      9      -2.1678      1.00000
     10      -2.1678      1.00000
     11       0.0327      0.00000
     12       0.0327      0.00000
     13       0.7202      0.00000
     14       0.7203      0.00000
     15       1.6718      0.00000
     16       1.6718      0.00000
     17       3.0253      0.00000
     18       3.0256      0.00000

 k-point    52 :       0.2500    0.3333    0.0000
  band No.  band energies     occupation 
      1     -12.9186      1.00000
      2     -12.9186      1.00000
      3     -10.3239      1.00000
      4     -10.3239      1.00000
      5      -4.3674      1.00000
      6      -4.3674      1.00000
      7      -3.3988      1.00000
      8      -3.3988      1.00000
      9      -2.1325      1.00000
     10      -2.1325      1.00000
     11      -0.3513      0.00000
     12      -0.3513      0.00000
     13       0.9912      0.00000
     14       0.9912      0.00000
     15       1.6438      0.00000
     16       1.6438      0.00000
     17       3.0645      0.00000
     18       3.0664      0.00000

 k-point    53 :       0.3333    0.3333    0.0000
  band No.  band energies     occupation 
      1     -12.7756      1.00000
      2     -12.7756      1.00000
      3     -10.4506      1.00000
      4     -10.4506      1.00000
      5      -4.5226      1.00000
      6      -4.5226      1.00000
      7      -3.4282      1.00000
      8      -3.4282      1.00000
      9      -2.1414      1.00000
     10      -2.1414      1.00000
     11      -0.6032      0.00000
     12      -0.6032      0.00000
     13       1.0187      0.00000
     14       1.0187      0.00000
     15       1.7240      0.00000
     16       1.7240      0.00000
     17       3.1722      0.00000
     18       3.1728      0.00000

 k-point    54 :       0.4167    0.3333    0.0000
  band No.  band energies     occupation 
      1     -12.5483      1.00000
      2     -12.5483      1.00000
      3     -10.6513      1.00000
      4     -10.6513      1.00000
      5      -4.5828      1.00000
      6      -4.5828      1.00000
      7      -3.7073      1.00000
      8      -3.7073      1.00000
      9      -2.4132      1.00000
     10      -2.4132      1.00000
     11      -0.2501      0.00000
     12      -0.2501      0.00000
     13       0.9336      0.00000
     14       0.9336      0.00000
     15       1.5345      0.00000
     16       1.5345      0.00000
     17       3.3909      0.00000
     18       3.3913      0.00000

 k-point    55 :       0.5000    0.3333    0.0000
  band No.  band energies     occupation 
      1     -12.2541      1.00000
      2     -12.2541      1.00000
      3     -10.9130      1.00000
      4     -10.9130      1.00000
      5      -4.6194      1.00000
      6      -4.6194      1.00000
      7      -3.9866      1.00000
      8      -3.9866      1.00000
      9      -2.7477      1.00000
     10      -2.7477      1.00000
     11       0.1521      0.00000
     12       0.1521      0.00000
     13       0.8061      0.00000
     14       0.8061      0.00000
     15       1.4962      0.00000
     16       1.4962      0.00000
     17       3.6883      0.00000
     18       3.6883      0.00000

 k-point    56 :      -0.4167    0.3333    0.0000
  band No.  band energies     occupation 
      1     -11.9169      1.00000
      2     -11.9169      1.00000
      3     -11.2219      1.00000
      4     -11.2219      1.00000
      5      -4.7709      1.00000
      6      -4.7709      1.00000
      7      -3.9864      1.00000
      8      -3.9864      1.00000
      9      -3.0244      1.00000
     10      -3.0244      1.00000
     11      -0.0267      0.00000
     12      -0.0267      0.00000
     13       1.0690      0.00000
     14       1.0690      0.00000
     15       1.6439      0.00000
     16       1.6439      0.00000
     17       4.1858      0.00000
     18       4.1858      0.00000

 k-point    57 :      -0.3333    0.3333    0.0000
  band No.  band energies     occupation 
      1     -11.5840      1.00000
      2     -11.5840      1.00000
      3     -11.5433      1.00000
      4     -11.5433      1.00000
      5      -4.8600      1.00000
      6      -4.8600      1.00000
      7      -3.9126      1.00000
      8      -3.9126      1.00000
      9      -3.1530      1.00000
     10      -3.1530      1.00000
     11      -0.1627      0.00000
     12      -0.1627      0.00000
     13       1.2347      0.00000
     14       1.2347      0.00000
     15       1.6980      0.00000
     16       1.6980      0.00000
     17       4.4490      0.00000
     18       4.4490      0.00000

 k-point    58 :      -0.2500    0.3333    0.0000
  band No.  band energies     occupation 
      1     -11.9169      1.00000
      2     -11.9169      1.00000
      3     -11.2219      1.00000
      4     -11.2219      1.00000
      5      -4.7709      1.00000
      6      -4.7709      1.00000
      7      -3.9864      1.00000
      8      -3.9864      1.00000
      9      -3.0244      1.00000
     10      -3.0244      1.00000
     11      -0.0267      0.00000
     12      -0.0267      0.00000
     13       1.0690      0.00000
     14       1.0690      0.00000
     15       1.6439      0.00000
     16       1.6439      0.00000
     17       4.1858      0.00000
     18       4.1858      0.00000

 k-point    59 :      -0.1667    0.3333    0.0000
  band No.  band energies     occupation 
      1     -12.2541      1.00000
      2     -12.2541      1.00000
      3     -10.9130      1.00000
      4     -10.9130      1.00000
      5      -4.6194      1.00000
      6      -4.6194      1.00000
      7      -3.9866      1.00000
      8      -3.9866      1.00000
      9      -2.7477      1.00000
     10      -2.7477      1.00000
     11       0.1521      0.00000
     12       0.1521      0.00000
     13       0.8061      0.00000
     14       0.8061      0.00000
     15       1.4962      0.00000
     16       1.4962      0.00000
     17       3.6883      0.00000
     18       3.6883      0.00000

 k-point    60 :      -0.0833    0.3333    0.0000
  band No.  band energies     occupation 
      1     -12.5483      1.00000
      2     -12.5483      1.00000
      3     -10.6513      1.00000
      4     -10.6513      1.00000
      5      -4.5828      1.00000
      6      -4.5828      1.00000
      7      -3.7073      1.00000
      8      -3.7073      1.00000
      9      -2.4132      1.00000
     10      -2.4132      1.00000
     11      -0.2501      0.00000
     12      -0.2501      0.00000
     13       0.9336      0.00000
     14       0.9336      0.00000
     15       1.5345      0.00000
     16       1.5345      0.00000
     17       3.3909      0.00000
     18       3.3909      0.00000

 k-point    61 :       0.0000    0.4167    0.0000
  band No.  band energies     occupation 
      1     -12.4108      1.00000
      2     -12.4108      1.00000
      3     -10.7895      1.00000
      4     -10.7895      1.00000
      5      -4.6514      1.00000
      6      -4.6514      1.00000
      7      -3.7270      1.00000
      8      -3.7270      1.00000
      9      -2.3783      1.00000
     10      -2.3783      1.00000
     11      -0.4235      0.00000
     12      -0.4235      0.00000
     13       0.8334      0.00000
     14       0.8334      0.00000
     15       1.6639      0.00000
     16       1.6639      0.00000
     17       3.3077      0.00000
     18       3.3077      0.00000

 k-point    62 :       0.0833    0.4167    0.0000
  band No.  band energies     occupation 
      1     -12.5483      1.00000
      2     -12.5483      1.00000
      3     -10.6513      1.00000
      4     -10.6513      1.00000
      5      -4.5828      1.00000
      6      -4.5828      1.00000
      7      -3.7073      1.00000
      8      -3.7073      1.00000
      9      -2.4132      1.00000
     10      -2.4132      1.00000
     11      -0.2501      0.00000
     12      -0.2501      0.00000
     13       0.9336      0.00000
     14       0.9336      0.00000
     15       1.5345      0.00000
     16       1.5345      0.00000
     17       3.3909      0.00000
     18       3.3911      0.00000

 k-point    63 :       0.1667    0.4167    0.0000
  band No.  band energies     occupation 
      1     -12.6224      1.00000
      2     -12.6224      1.00000
      3     -10.5716      1.00000
      4     -10.5716      1.00000
      5      -4.4389      1.00000
      6      -4.4389      1.00000
      7      -3.8780      1.00000
      8      -3.8780      1.00000
      9      -2.4574      1.00000
     10      -2.4574      1.00000
     11       0.1406      0.00000
     12       0.1406      0.00000
     13       0.7207      0.00000
     14       0.7207      0.00000
     15       1.6203      0.00000
     16       1.6203      0.00000
     17       3.4409      0.00000
     18       3.4419      0.00000

 k-point    64 :       0.2500    0.4167    0.0000
  band No.  band energies     occupation 
      1     -12.6224      1.00000
      2     -12.6224      1.00000
      3     -10.5716      1.00000
      4     -10.5716      1.00000
      5      -4.4389      1.00000
      6      -4.4389      1.00000
      7      -3.8780      1.00000
      8      -3.8780      1.00000
      9      -2.4574      1.00000
     10      -2.4574      1.00000
     11       0.1406      0.00000
     12       0.1406      0.00000
     13       0.7207      0.00000
     14       0.7207      0.00000
     15       1.6203      0.00000
     16       1.6203      0.00000
     17       3.4413      0.00000
     18       3.4419      0.00000

 k-point    65 :       0.3333    0.4167    0.0000
  band No.  band energies     occupation 
      1     -12.5483      1.00000
      2     -12.5483      1.00000
      3     -10.6513      1.00000
      4     -10.6513      1.00000
      5      -4.5828      1.00000
      6      -4.5828      1.00000
      7      -3.7073      1.00000
      8      -3.7073      1.00000
      9      -2.4132      1.00000
     10      -2.4132      1.00000
     11      -0.2501      0.00000
     12      -0.2501      0.00000
     13       0.9336      0.00000
     14       0.9336      0.00000
     15       1.5345      0.00000
     16       1.5345      0.00000
     17       3.3909      0.00000
     18       3.3911      0.00000

 k-point    66 :       0.4167    0.4167    0.0000
  band No.  band energies     occupation 
      1     -12.4108      1.00000
      2     -12.4108      1.00000
      3     -10.7895      1.00000
      4     -10.7895      1.00000
      5      -4.6514      1.00000
      6      -4.6514      1.00000
      7      -3.7270      1.00000
      8      -3.7270      1.00000
      9      -2.3783      1.00000
     10      -2.3783      1.00000
     11      -0.4235      0.00000
     12      -0.4235      0.00000
     13       0.8334      0.00000
     14       0.8334      0.00000
     15       1.6639      0.00000
     16       1.6639      0.00000
     17       3.3077      0.00000
     18       3.3077      0.00000

 k-point    67 :       0.5000    0.4167    0.0000
  band No.  band energies     occupation 
      1     -12.2320      1.00000
      2     -12.2320      1.00000
      3     -10.9541      1.00000
      4     -10.9541      1.00000
      5      -4.6594      1.00000
      6      -4.6594      1.00000
      7      -3.8746      1.00000
      8      -3.8746      1.00000
      9      -2.6047      1.00000
     10      -2.6047      1.00000
     11      -0.0840      0.00000
     12      -0.0840      0.00000
     13       0.7630      0.00000
     14       0.7630      0.00000
     15       1.4930      0.00000
     16       1.4930      0.00000
     17       3.3792      0.00000
     18       3.3792      0.00000

 k-point    68 :      -0.4167    0.4167    0.0000
  band No.  band energies     occupation 
      1     -12.0479      1.00000
      2     -12.0479      1.00000
      3     -11.1121      1.00000
      4     -11.1121      1.00000
      5      -4.6998      1.00000
      6      -4.6998      1.00000
      7      -3.9717      1.00000
      8      -3.9717      1.00000
      9      -2.8862      1.00000
     10      -2.8862      1.00000
     11       0.1470      0.00000
     12       0.1470      0.00000
     13       0.8842      0.00000
     14       0.8842      0.00000
     15       1.4095      0.00000
     16       1.4095      0.00000
     17       3.6494      0.00000
     18       3.6494      0.00000

 k-point    69 :      -0.3333    0.4167    0.0000
  band No.  band energies     occupation 
      1     -11.9169      1.00000
      2     -11.9169      1.00000
      3     -11.2219      1.00000
      4     -11.2219      1.00000
      5      -4.7709      1.00000
      6      -4.7709      1.00000
      7      -3.9864      1.00000
      8      -3.9864      1.00000
      9      -3.0244      1.00000
     10      -3.0244      1.00000
     11      -0.0267      0.00000
     12      -0.0267      0.00000
     13       1.0690      0.00000
     14       1.0690      0.00000
     15       1.6439      0.00000
     16       1.6439      0.00000
     17       4.1858      0.00000
     18       4.1858      0.00000

 k-point    70 :      -0.2500    0.4167    0.0000
  band No.  band energies     occupation 
      1     -11.9169      1.00000
      2     -11.9169      1.00000
      3     -11.2219      1.00000
      4     -11.2219      1.00000
      5      -4.7709      1.00000
      6      -4.7709      1.00000
      7      -3.9864      1.00000
      8      -3.9864      1.00000
      9      -3.0244      1.00000
     10      -3.0244      1.00000
     11      -0.0267      0.00000
     12      -0.0267      0.00000
     13       1.0690      0.00000
     14       1.0690      0.00000
     15       1.6439      0.00000
     16       1.6439      0.00000
     17       4.1858      0.00000
     18       4.1858      0.00000

 k-point    71 :      -0.1667    0.4167    0.0000
  band No.  band energies     occupation 
      1     -12.0479      1.00000
      2     -12.0479      1.00000
      3     -11.1121      1.00000
      4     -11.1121      1.00000
      5      -4.6998      1.00000
      6      -4.6998      1.00000
      7      -3.9717      1.00000
      8      -3.9717      1.00000
      9      -2.8862      1.00000
     10      -2.8862      1.00000
     11       0.1471      0.00000
     12       0.1471      0.00000
     13       0.8842      0.00000
     14       0.8842      0.00000
     15       1.4095      0.00000
     16       1.4095      0.00000
     17       3.6494      0.00000
     18       3.6494      0.00000

 k-point    72 :      -0.0833    0.4167    0.0000
  band No.  band energies     occupation 
      1     -12.2320      1.00000
      2     -12.2320      1.00000
      3     -10.9541      1.00000
      4     -10.9541      1.00000
      5      -4.6594      1.00000
      6      -4.6594      1.00000
      7      -3.8746      1.00000
      8      -3.8746      1.00000
      9      -2.6047      1.00000
     10      -2.6047      1.00000
     11      -0.0840      0.00000
     12      -0.0840      0.00000
     13       0.7630      0.00000
     14       0.7630      0.00000
     15       1.4930      0.00000
     16       1.4930      0.00000
     17       3.3792      0.00000
     18       3.3792      0.00000

 k-point    73 :       0.0000    0.5000    0.0000
  band No.  band energies     occupation 
      1     -12.2204      1.00000
      2     -12.2204      1.00000
      3     -10.9750      1.00000
      4     -10.9750      1.00000
      5      -4.6675      1.00000
      6      -4.6674      1.00000
      7      -3.8534      1.00000
      8      -3.8534      1.00000
      9      -2.4654      1.00000
     10      -2.4654      1.00000
     11      -0.3173      0.00000
     12      -0.3173      0.00000
     13       0.7256      0.00000
     14       0.7256      0.00000
     15       1.6389      0.00000
     16       1.6389      0.00000
     17       3.2795      0.00000
     18       3.2795      0.00000

 k-point    74 :       0.0833    0.5000    0.0000
  band No.  band energies     occupation 
      1     -12.2320      1.00000
      2     -12.2320      1.00000
      3     -10.9541      1.00000
      4     -10.9541      1.00000
      5      -4.6594      1.00000
      6      -4.6594      1.00000
      7      -3.8746      1.00000
      8      -3.8746      1.00000
      9      -2.6047      1.00000
     10      -2.6047      1.00000
     11      -0.0840      0.00000
     12      -0.0840      0.00000
     13       0.7630      0.00000
     14       0.7630      0.00000
     15       1.4930      0.00000
     16       1.4930      0.00000
     17       3.3792      0.00000
     18       3.3792      0.00000

 k-point    75 :       0.1667    0.5000    0.0000
  band No.  band energies     occupation 
      1     -12.2541      1.00000
      2     -12.2541      1.00000
      3     -10.9130      1.00000
      4     -10.9130      1.00000
      5      -4.6194      1.00000
      6      -4.6194      1.00000
      7      -3.9866      1.00000
      8      -3.9866      1.00000
      9      -2.7477      1.00000
     10      -2.7477      1.00000
     11       0.1521      0.00000
     12       0.1521      0.00000
     13       0.8061      0.00000
     14       0.8061      0.00000
     15       1.4962      0.00000
     16       1.4962      0.00000
     17       3.6883      0.00000
     18       3.6883      0.00000

 k-point    76 :       0.2500    0.5000    0.0000
  band No.  band energies     occupation 
      1     -12.2647      1.00000
      2     -12.2647      1.00000
      3     -10.8928      1.00000
      4     -10.8928      1.00000
      5      -4.5780      1.00000
      6      -4.5780      1.00000
      7      -4.0849      1.00000
      8      -4.0849      1.00000
      9      -2.7698      1.00000
     10      -2.7698      1.00000
     11       0.1772      0.00000
     12       0.1772      0.00000
     13       0.7520      0.00000
     14       0.7520      0.00000
     15       1.7073      0.00000
     16       1.7073      0.00000
     17       3.9070      0.00000
     18       3.9078      0.00000

 k-point    77 :       0.3333    0.5000    0.0000
  band No.  band energies     occupation 
      1     -12.2541      1.00000
      2     -12.2541      1.00000
      3     -10.9130      1.00000
      4     -10.9130      1.00000
      5      -4.6194      1.00000
      6      -4.6194      1.00000
      7      -3.9866      1.00000
      8      -3.9866      1.00000
      9      -2.7477      1.00000
     10      -2.7477      1.00000
     11       0.1521      0.00000
     12       0.1521      0.00000
     13       0.8061      0.00000
     14       0.8061      0.00000
     15       1.4962      0.00000
     16       1.4962      0.00000
     17       3.6883      0.00000
     18       3.6883      0.00000

 k-point    78 :       0.4167    0.5000    0.0000
  band No.  band energies     occupation 
      1     -12.2320      1.00000
      2     -12.2320      1.00000
      3     -10.9541      1.00000
      4     -10.9541      1.00000
      5      -4.6594      1.00000
      6      -4.6594      1.00000
      7      -3.8746      1.00000
      8      -3.8746      1.00000
      9      -2.6047      1.00000
     10      -2.6047      1.00000
     11      -0.0840      0.00000
     12      -0.0840      0.00000
     13       0.7630      0.00000
     14       0.7630      0.00000
     15       1.4930      0.00000
     16       1.4930      0.00000
     17       3.3792      0.00000
     18       3.3792      0.00000

 k-point    79 :       0.5000    0.5000    0.0000
  band No.  band energies     occupation 
      1     -12.2204      1.00000
      2     -12.2204      1.00000
      3     -10.9750      1.00000
      4     -10.9750      1.00000
      5      -4.6675      1.00000
      6      -4.6675      1.00000
      7      -3.8534      1.00000
      8      -3.8534      1.00000
      9      -2.4654      1.00000
     10      -2.4654      1.00000
     11      -0.3173      0.00000
     12      -0.3173      0.00000
     13       0.7256      0.00000
     14       0.7256      0.00000
     15       1.6389      0.00000
     16       1.6389      0.00000
     17       3.2795      0.00000
     18       3.2795      0.00000

 k-point    80 :      -0.4167    0.5000    0.0000
  band No.  band energies     occupation 
      1     -12.2320      1.00000
      2     -12.2320      1.00000
      3     -10.9541      1.00000
      4     -10.9541      1.00000
      5      -4.6594      1.00000
      6      -4.6594      1.00000
      7      -3.8746      1.00000
      8      -3.8746      1.00000
      9      -2.6047      1.00000
     10      -2.6047      1.00000
     11      -0.0840      0.00000
     12      -0.0840      0.00000
     13       0.7630      0.00000
     14       0.7630      0.00000
     15       1.4930      0.00000
     16       1.4930      0.00000
     17       3.3792      0.00000
     18       3.3792      0.00000

 k-point    81 :      -0.3333    0.5000    0.0000
  band No.  band energies     occupation 
      1     -12.2541      1.00000
      2     -12.2541      1.00000
      3     -10.9130      1.00000
      4     -10.9130      1.00000
      5      -4.6194      1.00000
      6      -4.6194      1.00000
      7      -3.9866      1.00000
      8      -3.9866      1.00000
      9      -2.7477      1.00000
     10      -2.7477      1.00000
     11       0.1521      0.00000
     12       0.1521      0.00000
     13       0.8061      0.00000
     14       0.8061      0.00000
     15       1.4962      0.00000
     16       1.4962      0.00000
     17       3.6883      0.00000
     18       3.6883      0.00000

 k-point    82 :      -0.2500    0.5000    0.0000
  band No.  band energies     occupation 
      1     -12.2647      1.00000
      2     -12.2647      1.00000
      3     -10.8928      1.00000
      4     -10.8928      1.00000
      5      -4.5780      1.00000
      6      -4.5780      1.00000
      7      -4.0849      1.00000
      8      -4.0849      1.00000
      9      -2.7698      1.00000
     10      -2.7698      1.00000
     11       0.1772      0.00000
     12       0.1772      0.00000
     13       0.7520      0.00000
     14       0.7520      0.00000
     15       1.7073      0.00000
     16       1.7073      0.00000
     17       3.9071      0.00000
     18       3.9083      0.00000

 k-point    83 :      -0.1667    0.5000    0.0000
  band No.  band energies     occupation 
      1     -12.2541      1.00000
      2     -12.2541      1.00000
      3     -10.9130      1.00000
      4     -10.9130      1.00000
      5      -4.6194      1.00000
      6      -4.6194      1.00000
      7      -3.9866      1.00000
      8      -3.9866      1.00000
      9      -2.7477      1.00000
     10      -2.7477      1.00000
     11       0.1521      0.00000
     12       0.1521      0.00000
     13       0.8061      0.00000
     14       0.8061      0.00000
     15       1.4962      0.00000
     16       1.4962      0.00000
     17       3.6883      0.00000
     18       3.6883      0.00000

 k-point    84 :      -0.0833    0.5000    0.0000
  band No.  band energies     occupation 
      1     -12.2320      1.00000
      2     -12.2320      1.00000
      3     -10.9541      1.00000
      4     -10.9541      1.00000
      5      -4.6594      1.00000
      6      -4.6594      1.00000
      7      -3.8746      1.00000
      8      -3.8746      1.00000
      9      -2.6047      1.00000
     10      -2.6047      1.00000
     11      -0.0840      0.00000
     12      -0.0840      0.00000
     13       0.7630      0.00000
     14       0.7630      0.00000
     15       1.4930      0.00000
     16       1.4930      0.00000
     17       3.3792      0.00000
     18       3.3792      0.00000

 k-point    85 :       0.0000   -0.4167    0.0000
  band No.  band energies     occupation 
      1     -12.4108      1.00000
      2     -12.4108      1.00000
      3     -10.7895      1.00000
      4     -10.7895      1.00000
      5      -4.6514      1.00000
      6      -4.6514      1.00000
      7      -3.7270      1.00000
      8      -3.7270      1.00000
      9      -2.3783      1.00000
     10      -2.3783      1.00000
     11      -0.4235      0.00000
     12      -0.4235      0.00000
     13       0.8334      0.00000
     14       0.8334      0.00000
     15       1.6639      0.00000
     16       1.6639      0.00000
     17       3.3077      0.00000
     18       3.3077      0.00000

 k-point    86 :       0.0833   -0.4167    0.0000
  band No.  band energies     occupation 
      1     -12.2320      1.00000
      2     -12.2320      1.00000
      3     -10.9541      1.00000
      4     -10.9541      1.00000
      5      -4.6594      1.00000
      6      -4.6594      1.00000
      7      -3.8746      1.00000
      8      -3.8746      1.00000
      9      -2.6047      1.00000
     10      -2.6047      1.00000
     11      -0.0840      0.00000
     12      -0.0840      0.00000
     13       0.7630      0.00000
     14       0.7630      0.00000
     15       1.4930      0.00000
     16       1.4930      0.00000
     17       3.3792      0.00000
     18       3.3792      0.00000

 k-point    87 :       0.1667   -0.4167    0.0000
  band No.  band energies     occupation 
      1     -12.0479      1.00000
      2     -12.0479      1.00000
      3     -11.1121      1.00000
      4     -11.1121      1.00000
      5      -4.6998      1.00000
      6      -4.6998      1.00000
      7      -3.9717      1.00000
      8      -3.9717      1.00000
      9      -2.8862      1.00000
     10      -2.8862      1.00000
     11       0.1471      0.00000
     12       0.1471      0.00000
     13       0.8842      0.00000
     14       0.8842      0.00000
     15       1.4095      0.00000
     16       1.4095      0.00000
     17       3.6494      0.00000
     18       3.6494      0.00000

 k-point    88 :       0.2500   -0.4167    0.0000
  band No.  band energies     occupation 
      1     -11.9169      1.00000
      2     -11.9169      1.00000
      3     -11.2219      1.00000
      4     -11.2219      1.00000
      5      -4.7709      1.00000
      6      -4.7709      1.00000
      7      -3.9864      1.00000
      8      -3.9864      1.00000
      9      -3.0244      1.00000
     10      -3.0244      1.00000
     11      -0.0267      0.00000
     12      -0.0267      0.00000
     13       1.0690      0.00000
     14       1.0690      0.00000
     15       1.6439      0.00000
     16       1.6439      0.00000
     17       4.1858      0.00000
     18       4.1858      0.00000

 k-point    89 :       0.3333   -0.4167    0.0000
  band No.  band energies     occupation 
      1     -11.9169      1.00000
      2     -11.9169      1.00000
      3     -11.2219      1.00000
      4     -11.2219      1.00000
      5      -4.7709      1.00000
      6      -4.7709      1.00000
      7      -3.9864      1.00000
      8      -3.9864      1.00000
      9      -3.0244      1.00000
     10      -3.0244      1.00000
     11      -0.0267      0.00000
     12      -0.0267      0.00000
     13       1.0690      0.00000
     14       1.0690      0.00000
     15       1.6439      0.00000
     16       1.6439      0.00000
     17       4.1858      0.00000
     18       4.1858      0.00000

 k-point    90 :       0.4167   -0.4167    0.0000
  band No.  band energies     occupation 
      1     -12.0479      1.00000
      2     -12.0479      1.00000
      3     -11.1121      1.00000
      4     -11.1121      1.00000
      5      -4.6998      1.00000
      6      -4.6998      1.00000
      7      -3.9717      1.00000
      8      -3.9717      1.00000
      9      -2.8862      1.00000
     10      -2.8862      1.00000
     11       0.1470      0.00000
     12       0.1470      0.00000
     13       0.8842      0.00000
     14       0.8842      0.00000
     15       1.4095      0.00000
     16       1.4095      0.00000
     17       3.6494      0.00000
     18       3.6494      0.00000

 k-point    91 :       0.5000   -0.4167    0.0000
  band No.  band energies     occupation 
      1     -12.2320      1.00000
      2     -12.2320      1.00000
      3     -10.9541      1.00000
      4     -10.9541      1.00000
      5      -4.6594      1.00000
      6      -4.6594      1.00000
      7      -3.8746      1.00000
      8      -3.8746      1.00000
      9      -2.6047      1.00000
     10      -2.6047      1.00000
     11      -0.0840      0.00000
     12      -0.0840      0.00000
     13       0.7630      0.00000
     14       0.7630      0.00000
     15       1.4930      0.00000
     16       1.4930      0.00000
     17       3.3792      0.00000
     18       3.3792      0.00000

 k-point    92 :      -0.4167   -0.4167    0.0000
  band No.  band energies     occupation 
      1     -12.4108      1.00000
      2     -12.4108      1.00000
      3     -10.7895      1.00000
      4     -10.7895      1.00000
      5      -4.6514      1.00000
      6      -4.6514      1.00000
      7      -3.7270      1.00000
      8      -3.7270      1.00000
      9      -2.3783      1.00000
     10      -2.3783      1.00000
     11      -0.4235      0.00000
     12      -0.4235      0.00000
     13       0.8334      0.00000
     14       0.8334      0.00000
     15       1.6639      0.00000
     16       1.6639      0.00000
     17       3.3077      0.00000
     18       3.3077      0.00000

 k-point    93 :      -0.3333   -0.4167    0.0000
  band No.  band energies     occupation 
      1     -12.5483      1.00000
      2     -12.5483      1.00000
      3     -10.6513      1.00000
      4     -10.6513      1.00000
      5      -4.5828      1.00000
      6      -4.5828      1.00000
      7      -3.7073      1.00000
      8      -3.7073      1.00000
      9      -2.4132      1.00000
     10      -2.4132      1.00000
     11      -0.2501      0.00000
     12      -0.2501      0.00000
     13       0.9336      0.00000
     14       0.9336      0.00000
     15       1.5345      0.00000
     16       1.5345      0.00000
     17       3.3909      0.00000
     18       3.3910      0.00000

 k-point    94 :      -0.2500   -0.4167    0.0000
  band No.  band energies     occupation 
      1     -12.6224      1.00000
      2     -12.6224      1.00000
      3     -10.5716      1.00000
      4     -10.5716      1.00000
      5      -4.4389      1.00000
      6      -4.4389      1.00000
      7      -3.8780      1.00000
      8      -3.8780      1.00000
      9      -2.4574      1.00000
     10      -2.4574      1.00000
     11       0.1406      0.00000
     12       0.1406      0.00000
     13       0.7207      0.00000
     14       0.7207      0.00000
     15       1.6203      0.00000
     16       1.6203      0.00000
     17       3.4409      0.00000
     18       3.4411      0.00000

 k-point    95 :      -0.1667   -0.4167    0.0000
  band No.  band energies     occupation 
      1     -12.6224      1.00000
      2     -12.6224      1.00000
      3     -10.5716      1.00000
      4     -10.5716      1.00000
      5      -4.4389      1.00000
      6      -4.4389      1.00000
      7      -3.8780      1.00000
      8      -3.8780      1.00000
      9      -2.4574      1.00000
     10      -2.4574      1.00000
     11       0.1406      0.00000
     12       0.1406      0.00000
     13       0.7207      0.00000
     14       0.7207      0.00000
     15       1.6203      0.00000
     16       1.6203      0.00000
     17       3.4408      0.00000
     18       3.4461      0.00000

 k-point    96 :      -0.0833   -0.4167    0.0000
  band No.  band energies     occupation 
      1     -12.5483      1.00000
      2     -12.5483      1.00000
      3     -10.6513      1.00000
      4     -10.6513      1.00000
      5      -4.5828      1.00000
      6      -4.5828      1.00000
      7      -3.7073      1.00000
      8      -3.7073      1.00000
      9      -2.4132      1.00000
     10      -2.4132      1.00000
     11      -0.2501      0.00000
     12      -0.2501      0.00000
     13       0.9336      0.00000
     14       0.9336      0.00000
     15       1.5345      0.00000
     16       1.5345      0.00000
     17       3.3909      0.00000
     18       3.3910      0.00000

 k-point    97 :       0.0000   -0.3333    0.0000
  band No.  band energies     occupation 
      1     -12.7756      1.00000
      2     -12.7756      1.00000
      3     -10.4506      1.00000
      4     -10.4506      1.00000
      5      -4.5226      1.00000
      6      -4.5226      1.00000
      7      -3.4282      1.00000
      8      -3.4282      1.00000
      9      -2.1414      1.00000
     10      -2.1414      1.00000
     11      -0.6032      0.00000
     12      -0.6032      0.00000
     13       1.0187      0.00000
     14       1.0187      0.00000
     15       1.7240      0.00000
     16       1.7240      0.00000
     17       3.1722      0.00000
     18       3.1739      0.00000

 k-point    98 :       0.0833   -0.3333    0.0000
  band No.  band energies     occupation 
      1     -12.5483      1.00000
      2     -12.5483      1.00000
      3     -10.6513      1.00000
      4     -10.6513      1.00000
      5      -4.5828      1.00000
      6      -4.5828      1.00000
      7      -3.7073      1.00000
      8      -3.7073      1.00000
      9      -2.4132      1.00000
     10      -2.4132      1.00000
     11      -0.2501      0.00000
     12      -0.2501      0.00000
     13       0.9336      0.00000
     14       0.9336      0.00000
     15       1.5345      0.00000
     16       1.5345      0.00000
     17       3.3909      0.00000
     18       3.3909      0.00000

 k-point    99 :       0.1667   -0.3333    0.0000
  band No.  band energies     occupation 
      1     -12.2541      1.00000
      2     -12.2541      1.00000
      3     -10.9130      1.00000
      4     -10.9130      1.00000
      5      -4.6194      1.00000
      6      -4.6194      1.00000
      7      -3.9866      1.00000
      8      -3.9866      1.00000
      9      -2.7477      1.00000
     10      -2.7477      1.00000
     11       0.1521      0.00000
     12       0.1521      0.00000
     13       0.8061      0.00000
     14       0.8061      0.00000
     15       1.4962      0.00000
     16       1.4962      0.00000
     17       3.6883      0.00000
     18       3.6883      0.00000

 k-point   100 :       0.2500   -0.3333    0.0000
  band No.  band energies     occupation 
      1     -11.9169      1.00000
      2     -11.9169      1.00000
      3     -11.2219      1.00000
      4     -11.2219      1.00000
      5      -4.7709      1.00000
      6      -4.7709      1.00000
      7      -3.9864      1.00000
      8      -3.9864      1.00000
      9      -3.0244      1.00000
     10      -3.0244      1.00000
     11      -0.0267      0.00000
     12      -0.0267      0.00000
     13       1.0690      0.00000
     14       1.0690      0.00000
     15       1.6439      0.00000
     16       1.6439      0.00000
     17       4.1858      0.00000
     18       4.1858      0.00000

 k-point   101 :       0.3333   -0.3333    0.0000
  band No.  band energies     occupation 
      1     -11.5840      1.00000
      2     -11.5840      1.00000
      3     -11.5433      1.00000
      4     -11.5433      1.00000
      5      -4.8600      1.00000
      6      -4.8600      1.00000
      7      -3.9126      1.00000
      8      -3.9126      1.00000
      9      -3.1530      1.00000
     10      -3.1530      1.00000
     11      -0.1627      0.00000
     12      -0.1627      0.00000
     13       1.2347      0.00000
     14       1.2347      0.00000
     15       1.6980      0.00000
     16       1.6980      0.00000
     17       4.4490      0.00000
     18       4.4490      0.00000

 k-point   102 :       0.4167   -0.3333    0.0000
  band No.  band energies     occupation 
      1     -11.9169      1.00000
      2     -11.9169      1.00000
      3     -11.2219      1.00000
      4     -11.2219      1.00000
      5      -4.7709      1.00000
      6      -4.7709      1.00000
      7      -3.9864      1.00000
      8      -3.9864      1.00000
      9      -3.0244      1.00000
     10      -3.0244      1.00000
     11      -0.0267      0.00000
     12      -0.0267      0.00000
     13       1.0690      0.00000
     14       1.0690      0.00000
     15       1.6439      0.00000
     16       1.6439      0.00000
     17       4.1858      0.00000
     18       4.1858      0.00000

 k-point   103 :       0.5000   -0.3333    0.0000
  band No.  band energies     occupation 
      1     -12.2541      1.00000
      2     -12.2541      1.00000
      3     -10.9130      1.00000
      4     -10.9130      1.00000
      5      -4.6194      1.00000
      6      -4.6194      1.00000
      7      -3.9866      1.00000
      8      -3.9866      1.00000
      9      -2.7477      1.00000
     10      -2.7477      1.00000
     11       0.1521      0.00000
     12       0.1521      0.00000
     13       0.8061      0.00000
     14       0.8061      0.00000
     15       1.4962      0.00000
     16       1.4962      0.00000
     17       3.6883      0.00000
     18       3.6883      0.00000

 k-point   104 :      -0.4167   -0.3333    0.0000
  band No.  band energies     occupation 
      1     -12.5483      1.00000
      2     -12.5483      1.00000
      3     -10.6513      1.00000
      4     -10.6513      1.00000
      5      -4.5828      1.00000
      6      -4.5828      1.00000
      7      -3.7073      1.00000
      8      -3.7073      1.00000
      9      -2.4132      1.00000
     10      -2.4132      1.00000
     11      -0.2501      0.00000
     12      -0.2501      0.00000
     13       0.9336      0.00000
     14       0.9336      0.00000
     15       1.5345      0.00000
     16       1.5345      0.00000
     17       3.3909      0.00000
     18       3.3916      0.00000

 k-point   105 :      -0.3333   -0.3333    0.0000
  band No.  band energies     occupation 
      1     -12.7756      1.00000
      2     -12.7756      1.00000
      3     -10.4506      1.00000
      4     -10.4506      1.00000
      5      -4.5226      1.00000
      6      -4.5226      1.00000
      7      -3.4282      1.00000
      8      -3.4282      1.00000
      9      -2.1414      1.00000
     10      -2.1414      1.00000
     11      -0.6032      0.00000
     12      -0.6032      0.00000
     13       1.0187      0.00000
     14       1.0187      0.00000
     15       1.7240      0.00000
     16       1.7240      0.00000
     17       3.1722      0.00000
     18       3.1724      0.00000

 k-point   106 :      -0.2500   -0.3333    0.0000
  band No.  band energies     occupation 
      1     -12.9186      1.00000
      2     -12.9186      1.00000
      3     -10.3239      1.00000
      4     -10.3239      1.00000
      5      -4.3674      1.00000
      6      -4.3674      1.00000
      7      -3.3988      1.00000
      8      -3.3988      1.00000
      9      -2.1325      1.00000
     10      -2.1325      1.00000
     11      -0.3513      0.00000
     12      -0.3513      0.00000
     13       0.9912      0.00000
     14       0.9912      0.00000
     15       1.6438      0.00000
     16       1.6438      0.00000
     17       3.0645      0.00000
     18       3.0736      0.00000

 k-point   107 :      -0.1667   -0.3333    0.0000
  band No.  band energies     occupation 
      1     -12.9674      1.00000
      2     -12.9674      1.00000
      3     -10.2805      1.00000
      4     -10.2805      1.00000
      5      -4.2491      1.00000
      6      -4.2491      1.00000
      7      -3.4860      1.00000
      8      -3.4860      1.00000
      9      -2.1678      1.00000
     10      -2.1678      1.00000
     11       0.0327      0.00000
     12       0.0327      0.00000
     13       0.7203      0.00000
     14       0.7203      0.00000
     15       1.6718      0.00000
     16       1.6718      0.00000
     17       3.0253      0.00000
     18       3.0253      0.00000

 k-point   108 :      -0.0833   -0.3333    0.0000
  band No.  band energies     occupation 
      1     -12.9186      1.00000
      2     -12.9186      1.00000
      3     -10.3239      1.00000
      4     -10.3239      1.00000
      5      -4.3674      1.00000
      6      -4.3674      1.00000
      7      -3.3988      1.00000
      8      -3.3988      1.00000
      9      -2.1325      1.00000
     10      -2.1325      1.00000
     11      -0.3513      0.00000
     12      -0.3513      0.00000
     13       0.9912      0.00000
     14       0.9912      0.00000
     15       1.6438      0.00000
     16       1.6438      0.00000
     17       3.0645      0.00000
     18       3.0646      0.00000

 k-point   109 :       0.0000   -0.2500    0.0000
  band No.  band energies     occupation 
      1     -13.1272      1.00000
      2     -13.1272      1.00000
      3     -10.1629      1.00000
      4     -10.1629      1.00000
      5      -4.1994      1.00000
      6      -4.1994      1.00000
      7      -3.0573      1.00000
      8      -3.0573      1.00000
      9      -1.8397      1.00000
     10      -1.8397      1.00000
     11      -0.6562      0.00000
     12      -0.6562      0.00000
     13       1.0744      0.00000
     14       1.0744      0.00000
     15       1.7022      0.00000
     16       1.7022      0.00000
     17       2.8171      0.00000
     18       2.8172      0.00000

 k-point   110 :       0.0833   -0.2500    0.0000
  band No.  band energies     occupation 
      1     -12.9186      1.00000
      2     -12.9186      1.00000
      3     -10.3239      1.00000
      4     -10.3239      1.00000
      5      -4.3674      1.00000
      6      -4.3674      1.00000
      7      -3.3988      1.00000
      8      -3.3988      1.00000
      9      -2.1325      1.00000
     10      -2.1325      1.00000
     11      -0.3513      0.00000
     12      -0.3513      0.00000
     13       0.9912      0.00000
     14       0.9912      0.00000
     15       1.6438      0.00000
     16       1.6438      0.00000
     17       3.0645      0.00000
     18       3.0646      0.00000

 k-point   111 :       0.1667   -0.2500    0.0000
  band No.  band energies     occupation 
      1     -12.6224      1.00000
      2     -12.6224      1.00000
      3     -10.5716      1.00000
      4     -10.5716      1.00000
      5      -4.4389      1.00000
      6      -4.4389      1.00000
      7      -3.8780      1.00000
      8      -3.8780      1.00000
      9      -2.4574      1.00000
     10      -2.4574      1.00000
     11       0.1406      0.00000
     12       0.1406      0.00000
     13       0.7207      0.00000
     14       0.7207      0.00000
     15       1.6203      0.00000
     16       1.6203      0.00000
     17       3.4411      0.00000
     18       3.4421      0.00000

 k-point   112 :       0.2500   -0.2500    0.0000
  band No.  band energies     occupation 
      1     -12.2647      1.00000
      2     -12.2647      1.00000
      3     -10.8928      1.00000
      4     -10.8928      1.00000
      5      -4.5780      1.00000
      6      -4.5780      1.00000
      7      -4.0849      1.00000
      8      -4.0849      1.00000
      9      -2.7698      1.00000
     10      -2.7698      1.00000
     11       0.1772      0.00000
     12       0.1772      0.00000
     13       0.7520      0.00000
     14       0.7520      0.00000
     15       1.7073      0.00000
     16       1.7073      0.00000
     17       3.9070      0.00000
     18       3.9080      0.00000

 k-point   113 :       0.3333   -0.2500    0.0000
  band No.  band energies     occupation 
      1     -11.9169      1.00000
      2     -11.9169      1.00000
      3     -11.2219      1.00000
      4     -11.2219      1.00000
      5      -4.7709      1.00000
      6      -4.7709      1.00000
      7      -3.9864      1.00000
      8      -3.9864      1.00000
      9      -3.0244      1.00000
     10      -3.0244      1.00000
     11      -0.0267      0.00000
     12      -0.0267      0.00000
     13       1.0690      0.00000
     14       1.0690      0.00000
     15       1.6439      0.00000
     16       1.6439      0.00000
     17       4.1858      0.00000
     18       4.1858      0.00000

 k-point   114 :       0.4167   -0.2500    0.0000
  band No.  band energies     occupation 
      1     -11.9169      1.00000
      2     -11.9169      1.00000
      3     -11.2219      1.00000
      4     -11.2219      1.00000
      5      -4.7709      1.00000
      6      -4.7709      1.00000
      7      -3.9864      1.00000
      8      -3.9864      1.00000
      9      -3.0244      1.00000
     10      -3.0244      1.00000
     11      -0.0267      0.00000
     12      -0.0267      0.00000
     13       1.0690      0.00000
     14       1.0690      0.00000
     15       1.6439      0.00000
     16       1.6439      0.00000
     17       4.1858      0.00000
     18       4.1858      0.00000

 k-point   115 :       0.5000   -0.2500    0.0000
  band No.  band energies     occupation 
      1     -12.2647      1.00000
      2     -12.2647      1.00000
      3     -10.8928      1.00000
      4     -10.8928      1.00000
      5      -4.5780      1.00000
      6      -4.5780      1.00000
      7      -4.0849      1.00000
      8      -4.0849      1.00000
      9      -2.7698      1.00000
     10      -2.7698      1.00000
     11       0.1772      0.00000
     12       0.1772      0.00000
     13       0.7520      0.00000
     14       0.7520      0.00000
     15       1.7073      0.00000
     16       1.7073      0.00000
     17       3.9069      0.00000
     18       3.9081      0.00000

 k-point   116 :      -0.4167   -0.2500    0.0000
  band No.  band energies     occupation 
      1     -12.6224      1.00000
      2     -12.6224      1.00000
      3     -10.5716      1.00000
      4     -10.5716      1.00000
      5      -4.4389      1.00000
      6      -4.4389      1.00000
      7      -3.8780      1.00000
      8      -3.8780      1.00000
      9      -2.4574      1.00000
     10      -2.4574      1.00000
     11       0.1406      0.00000
     12       0.1406      0.00000
     13       0.7207      0.00000
     14       0.7207      0.00000
     15       1.6203      0.00000
     16       1.6203      0.00000
     17       3.4409      0.00000
     18       3.4411      0.00000

 k-point   117 :      -0.3333   -0.2500    0.0000
  band No.  band energies     occupation 
      1     -12.9186      1.00000
      2     -12.9186      1.00000
      3     -10.3239      1.00000
      4     -10.3239      1.00000
      5      -4.3674      1.00000
      6      -4.3674      1.00000
      7      -3.3988      1.00000
      8      -3.3988      1.00000
      9      -2.1325      1.00000
     10      -2.1325      1.00000
     11      -0.3513      0.00000
     12      -0.3513      0.00000
     13       0.9912      0.00000
     14       0.9912      0.00000
     15       1.6438      0.00000
     16       1.6438      0.00000
     17       3.0645      0.00000
     18       3.0649      0.00000

 k-point   118 :      -0.2500   -0.2500    0.0000
  band No.  band energies     occupation 
      1     -13.1272      1.00000
      2     -13.1272      1.00000
      3     -10.1629      1.00000
      4     -10.1629      1.00000
      5      -4.1994      1.00000
      6      -4.1994      1.00000
      7      -3.0573      1.00000
      8      -3.0573      1.00000
      9      -1.8397      1.00000
     10      -1.8397      1.00000
     11      -0.6562      0.00000
     12      -0.6562      0.00000
     13       1.0744      0.00000
     14       1.0744      0.00000
     15       1.7022      0.00000
     16       1.7022      0.00000
     17       2.8171      0.00000
     18       2.8191      0.00000

 k-point   119 :      -0.1667   -0.2500    0.0000
  band No.  band energies     occupation 
      1     -13.2346      1.00000
      2     -13.2346      1.00000
      3     -10.0854      1.00000
      4     -10.0854      1.00000
      5      -4.0071      1.00000
      6      -4.0071      1.00000
      7      -2.9807      1.00000
      8      -2.9807      1.00000
      9      -1.8668      1.00000
     10      -1.8668      1.00000
     11      -0.2961      0.00000
     12      -0.2961      0.00000
     13       0.8452      0.00000
     14       0.8452      0.00000
     15       1.6315      0.00000
     16       1.6315      0.00000
     17       2.6984      0.00000
     18       2.6985      0.00000

 k-point   120 :      -0.0833   -0.2500    0.0000
  band No.  band energies     occupation 
      1     -13.2346      1.00000
      2     -13.2346      1.00000
      3     -10.0854      1.00000
      4     -10.0854      1.00000
      5      -4.0071      1.00000
      6      -4.0071      1.00000
      7      -2.9807      1.00000
      8      -2.9807      1.00000
      9      -1.8668      1.00000
     10      -1.8668      1.00000
     11      -0.2961      0.00000
     12      -0.2961      0.00000
     13       0.8452      0.00000
     14       0.8452      0.00000
     15       1.6315      0.00000
     16       1.6315      0.00000
     17       2.6984      0.00000
     18       2.6985      0.00000

 k-point   121 :       0.0000   -0.1667    0.0000
  band No.  band energies     occupation 
      1     -13.4015      1.00000
      2     -13.4015      1.00000
      3      -9.9811      1.00000
      4      -9.9811      1.00000
      5      -3.7439      1.00000
      6      -3.7439      1.00000
      7      -2.6335      1.00000
      8      -2.6335      1.00000
      9      -1.5734      1.00000
     10      -1.5734      1.00000
     11      -0.5228      0.00000
     12      -0.5228      0.00000
     13       0.9045      0.00000
     14       0.9045      0.00000
     15       1.4752      0.00000
     16       1.4752      0.00000
     17       2.4940      0.00000
     18       2.4941      0.00000

 k-point   122 :       0.0833   -0.1667    0.0000
  band No.  band energies     occupation 
      1     -13.2346      1.00000
      2     -13.2346      1.00000
      3     -10.0854      1.00000
      4     -10.0854      1.00000
      5      -4.0071      1.00000
      6      -4.0071      1.00000
      7      -2.9807      1.00000
      8      -2.9807      1.00000
      9      -1.8668      1.00000
     10      -1.8668      1.00000
     11      -0.2961      0.00000
     12      -0.2961      0.00000
     13       0.8452      0.00000
     14       0.8452      0.00000
     15       1.6315      0.00000
     16       1.6315      0.00000
     17       2.6984      0.00000
     18       2.6985      0.00000

 k-point   123 :       0.1667   -0.1667    0.0000
  band No.  band energies     occupation 
      1     -12.9674      1.00000
      2     -12.9674      1.00000
      3     -10.2805      1.00000
      4     -10.2805      1.00000
      5      -4.2491      1.00000
      6      -4.2491      1.00000
      7      -3.4860      1.00000
      8      -3.4860      1.00000
      9      -2.1678      1.00000
     10      -2.1678      1.00000
     11       0.0327      0.00000
     12       0.0327      0.00000
     13       0.7203      0.00000
     14       0.7203      0.00000
     15       1.6718      0.00000
     16       1.6718      0.00000
     17       3.0253      0.00000
     18       3.0256      0.00000

 k-point   124 :       0.2500   -0.1667    0.0000
  band No.  band energies     occupation 
      1     -12.6224      1.00000
      2     -12.6224      1.00000
      3     -10.5716      1.00000
      4     -10.5716      1.00000
      5      -4.4389      1.00000
      6      -4.4389      1.00000
      7      -3.8780      1.00000
      8      -3.8780      1.00000
      9      -2.4574      1.00000
     10      -2.4574      1.00000
     11       0.1406      0.00000
     12       0.1406      0.00000
     13       0.7207      0.00000
     14       0.7207      0.00000
     15       1.6203      0.00000
     16       1.6203      0.00000
     17       3.4409      0.00000
     18       3.4450      0.00000

 k-point   125 :       0.3333   -0.1667    0.0000
  band No.  band energies     occupation 
      1     -12.2541      1.00000
      2     -12.2541      1.00000
      3     -10.9130      1.00000
      4     -10.9130      1.00000
      5      -4.6194      1.00000
      6      -4.6194      1.00000
      7      -3.9866      1.00000
      8      -3.9866      1.00000
      9      -2.7477      1.00000
     10      -2.7477      1.00000
     11       0.1521      0.00000
     12       0.1521      0.00000
     13       0.8061      0.00000
     14       0.8061      0.00000
     15       1.4962      0.00000
     16       1.4962      0.00000
     17       3.6883      0.00000
     18       3.6883      0.00000

 k-point   126 :       0.4167   -0.1667    0.0000
  band No.  band energies     occupation 
      1     -12.0479      1.00000
      2     -12.0479      1.00000
      3     -11.1121      1.00000
      4     -11.1121      1.00000
      5      -4.6998      1.00000
      6      -4.6998      1.00000
      7      -3.9717      1.00000
      8      -3.9717      1.00000
      9      -2.8862      1.00000
     10      -2.8862      1.00000
     11       0.1471      0.00000
     12       0.1471      0.00000
     13       0.8842      0.00000
     14       0.8842      0.00000
     15       1.4095      0.00000
     16       1.4095      0.00000
     17       3.6494      0.00000
     18       3.6494      0.00000

 k-point   127 :       0.5000   -0.1667    0.0000
  band No.  band energies     occupation 
      1     -12.2541      1.00000
      2     -12.2541      1.00000
      3     -10.9130      1.00000
      4     -10.9130      1.00000
      5      -4.6194      1.00000
      6      -4.6194      1.00000
      7      -3.9866      1.00000
      8      -3.9866      1.00000
      9      -2.7477      1.00000
     10      -2.7477      1.00000
     11       0.1521      0.00000
     12       0.1521      0.00000
     13       0.8061      0.00000
     14       0.8061      0.00000
     15       1.4962      0.00000
     16       1.4962      0.00000
     17       3.6883      0.00000
     18       3.6883      0.00000

 k-point   128 :      -0.4167   -0.1667    0.0000
  band No.  band energies     occupation 
      1     -12.6224      1.00000
      2     -12.6224      1.00000
      3     -10.5716      1.00000
      4     -10.5716      1.00000
      5      -4.4389      1.00000
      6      -4.4389      1.00000
      7      -3.8780      1.00000
      8      -3.8780      1.00000
      9      -2.4574      1.00000
     10      -2.4574      1.00000
     11       0.1406      0.00000
     12       0.1406      0.00000
     13       0.7207      0.00000
     14       0.7207      0.00000
     15       1.6203      0.00000
     16       1.6203      0.00000
     17       3.4409      0.00000
     18       3.4420      0.00000

 k-point   129 :      -0.3333   -0.1667    0.0000
  band No.  band energies     occupation 
      1     -12.9674      1.00000
      2     -12.9674      1.00000
      3     -10.2805      1.00000
      4     -10.2805      1.00000
      5      -4.2491      1.00000
      6      -4.2491      1.00000
      7      -3.4860      1.00000
      8      -3.4860      1.00000
      9      -2.1678      1.00000
     10      -2.1678      1.00000
     11       0.0327      0.00000
     12       0.0327      0.00000
     13       0.7203      0.00000
     14       0.7203      0.00000
     15       1.6718      0.00000
     16       1.6718      0.00000
     17       3.0253      0.00000
     18       3.0254      0.00000

 k-point   130 :      -0.2500   -0.1667    0.0000
  band No.  band energies     occupation 
      1     -13.2346      1.00000
      2     -13.2346      1.00000
      3     -10.0854      1.00000
      4     -10.0854      1.00000
      5      -4.0071      1.00000
      6      -4.0071      1.00000
      7      -2.9807      1.00000
      8      -2.9807      1.00000
      9      -1.8668      1.00000
     10      -1.8668      1.00000
     11      -0.2961      0.00000
     12      -0.2961      0.00000
     13       0.8452      0.00000
     14       0.8452      0.00000
     15       1.6315      0.00000
     16       1.6315      0.00000
     17       2.6984      0.00000
     18       2.6985      0.00000

 k-point   131 :      -0.1667   -0.1667    0.0000
  band No.  band energies     occupation 
      1     -13.4015      1.00000
      2     -13.4015      1.00000
      3      -9.9811      1.00000
      4      -9.9811      1.00000
      5      -3.7439      1.00000
      6      -3.7439      1.00000
      7      -2.6335      1.00000
      8      -2.6335      1.00000
      9      -1.5734      1.00000
     10      -1.5734      1.00000
     11      -0.5228      0.00000
     12      -0.5228      0.00000
     13       0.9045      0.00000
     14       0.9045      0.00000
     15       1.4752      0.00000
     16       1.4752      0.00000
     17       2.4940      0.00000
     18       2.4941      0.00000

 k-point   132 :      -0.0833   -0.1667    0.0000
  band No.  band energies     occupation 
      1     -13.4582      1.00000
      2     -13.4582      1.00000
      3      -9.9493      1.00000
      4      -9.9493      1.00000
      5      -3.6187      1.00000
      6      -3.6187      1.00000
      7      -2.5056      1.00000
      8      -2.5056      1.00000
      9      -1.5853      1.00000
     10      -1.5853      1.00000
     11      -0.3267      0.00000
     12      -0.3267      0.00000
     13       0.6934      0.00000
     14       0.6934      0.00000
     15       1.4482      0.00000
     16       1.4482      0.00000
     17       2.4240      0.00000
     18       2.4241      0.00000

 k-point   133 :       0.0000   -0.0833    0.0000
  band No.  band energies     occupation 
      1     -13.5733      1.00000
      2     -13.5733      1.00000
      3      -9.8918      1.00000
      4      -9.8918      1.00000
      5      -3.3847      1.00000
      6      -3.3847      1.00000
      7      -2.0684      1.00000
      8      -2.0684      1.00000
      9      -1.3490      1.00000
     10      -1.3490      1.00000
     11      -0.5608      0.00000
     12      -0.5608      0.00000
     13       0.5662      0.00000
     14       0.5662      0.00000
     15       1.4292      0.00000
     16       1.4292      0.00000
     17       2.2576      0.00000
     18       2.2577      0.00000

 k-point   134 :       0.0833   -0.0833    0.0000
  band No.  band energies     occupation 
      1     -13.4582      1.00000
      2     -13.4582      1.00000
      3      -9.9493      1.00000
      4      -9.9493      1.00000
      5      -3.6187      1.00000
      6      -3.6187      1.00000
      7      -2.5056      1.00000
      8      -2.5056      1.00000
      9      -1.5853      1.00000
     10      -1.5853      1.00000
     11      -0.3267      0.00000
     12      -0.3267      0.00000
     13       0.6934      0.00000
     14       0.6934      0.00000
     15       1.4482      0.00000
     16       1.4482      0.00000
     17       2.4240      0.00000
     18       2.4241      0.00000

 k-point   135 :       0.1667   -0.0833    0.0000
  band No.  band energies     occupation 
      1     -13.2346      1.00000
      2     -13.2346      1.00000
      3     -10.0854      1.00000
      4     -10.0854      1.00000
      5      -4.0071      1.00000
      6      -4.0071      1.00000
      7      -2.9807      1.00000
      8      -2.9807      1.00000
      9      -1.8668      1.00000
     10      -1.8668      1.00000
     11      -0.2961      0.00000
     12      -0.2961      0.00000
     13       0.8452      0.00000
     14       0.8452      0.00000
     15       1.6315      0.00000
     16       1.6315      0.00000
     17       2.6984      0.00000
     18       2.6985      0.00000

 k-point   136 :       0.2500   -0.0833    0.0000
  band No.  band energies     occupation 
      1     -12.9186      1.00000
      2     -12.9186      1.00000
      3     -10.3239      1.00000
      4     -10.3239      1.00000
      5      -4.3674      1.00000
      6      -4.3674      1.00000
      7      -3.3988      1.00000
      8      -3.3988      1.00000
      9      -2.1325      1.00000
     10      -2.1325      1.00000
     11      -0.3513      0.00000
     12      -0.3513      0.00000
     13       0.9912      0.00000
     14       0.9912      0.00000
     15       1.6438      0.00000
     16       1.6438      0.00000
     17       3.0645      0.00000
     18       3.0648      0.00000

 k-point   137 :       0.3333   -0.0833    0.0000
  band No.  band energies     occupation 
      1     -12.5483      1.00000
      2     -12.5483      1.00000
      3     -10.6513      1.00000
      4     -10.6513      1.00000
      5      -4.5828      1.00000
      6      -4.5828      1.00000
      7      -3.7073      1.00000
      8      -3.7073      1.00000
      9      -2.4132      1.00000
     10      -2.4132      1.00000
     11      -0.2501      0.00000
     12      -0.2501      0.00000
     13       0.9336      0.00000
     14       0.9336      0.00000
     15       1.5345      0.00000
     16       1.5345      0.00000
     17       3.3909      0.00000
     18       3.3911      0.00000

 k-point   138 :       0.4167   -0.0833    0.0000
  band No.  band energies     occupation 
      1     -12.2320      1.00000
      2     -12.2320      1.00000
      3     -10.9541      1.00000
      4     -10.9541      1.00000
      5      -4.6594      1.00000
      6      -4.6594      1.00000
      7      -3.8746      1.00000
      8      -3.8746      1.00000
      9      -2.6047      1.00000
     10      -2.6047      1.00000
     11      -0.0840      0.00000
     12      -0.0840      0.00000
     13       0.7630      0.00000
     14       0.7630      0.00000
     15       1.4930      0.00000
     16       1.4930      0.00000
     17       3.3792      0.00000
     18       3.3792      0.00000

 k-point   139 :       0.5000   -0.0833    0.0000
  band No.  band energies     occupation 
      1     -12.2320      1.00000
      2     -12.2320      1.00000
      3     -10.9541      1.00000
      4     -10.9541      1.00000
      5      -4.6594      1.00000
      6      -4.6594      1.00000
      7      -3.8746      1.00000
      8      -3.8746      1.00000
      9      -2.6047      1.00000
     10      -2.6047      1.00000
     11      -0.0840      0.00000
     12      -0.0840      0.00000
     13       0.7630      0.00000
     14       0.7630      0.00000
     15       1.4930      0.00000
     16       1.4930      0.00000
     17       3.3792      0.00000
     18       3.3792      0.00000

 k-point   140 :      -0.4167   -0.0833    0.0000
  band No.  band energies     occupation 
      1     -12.5483      1.00000
      2     -12.5483      1.00000
      3     -10.6513      1.00000
      4     -10.6513      1.00000
      5      -4.5828      1.00000
      6      -4.5828      1.00000
      7      -3.7073      1.00000
      8      -3.7073      1.00000
      9      -2.4132      1.00000
     10      -2.4132      1.00000
     11      -0.2501      0.00000
     12      -0.2501      0.00000
     13       0.9336      0.00000
     14       0.9336      0.00000
     15       1.5345      0.00000
     16       1.5345      0.00000
     17       3.3909      0.00000
     18       3.3910      0.00000

 k-point   141 :      -0.3333   -0.0833    0.0000
  band No.  band energies     occupation 
      1     -12.9186      1.00000
      2     -12.9186      1.00000
      3     -10.3239      1.00000
      4     -10.3239      1.00000
      5      -4.3674      1.00000
      6      -4.3674      1.00000
      7      -3.3988      1.00000
      8      -3.3988      1.00000
      9      -2.1325      1.00000
     10      -2.1325      1.00000
     11      -0.3513      0.00000
     12      -0.3513      0.00000
     13       0.9912      0.00000
     14       0.9912      0.00000
     15       1.6438      0.00000
     16       1.6438      0.00000
     17       3.0644      0.00000
     18       3.0647      0.00000

 k-point   142 :      -0.2500   -0.0833    0.0000
  band No.  band energies     occupation 
      1     -13.2346      1.00000
      2     -13.2346      1.00000
      3     -10.0854      1.00000
      4     -10.0854      1.00000
      5      -4.0071      1.00000
      6      -4.0071      1.00000
      7      -2.9807      1.00000
      8      -2.9807      1.00000
      9      -1.8668      1.00000
     10      -1.8668      1.00000
     11      -0.2961      0.00000
     12      -0.2961      0.00000
     13       0.8452      0.00000
     14       0.8452      0.00000
     15       1.6315      0.00000
     16       1.6315      0.00000
     17       2.6984      0.00000
     18       2.6985      0.00000

 k-point   143 :      -0.1667   -0.0833    0.0000
  band No.  band energies     occupation 
      1     -13.4582      1.00000
      2     -13.4582      1.00000
      3      -9.9493      1.00000
      4      -9.9493      1.00000
      5      -3.6187      1.00000
      6      -3.6187      1.00000
      7      -2.5056      1.00000
      8      -2.5056      1.00000
      9      -1.5853      1.00000
     10      -1.5853      1.00000
     11      -0.3267      0.00000
     12      -0.3267      0.00000
     13       0.6934      0.00000
     14       0.6934      0.00000
     15       1.4482      0.00000
     16       1.4482      0.00000
     17       2.4240      0.00000
     18       2.4241      0.00000

 k-point   144 :      -0.0833   -0.0833    0.0000
  band No.  band energies     occupation 
      1     -13.5733      1.00000
      2     -13.5733      1.00000
      3      -9.8918      1.00000
      4      -9.8918      1.00000
      5      -3.3847      1.00000
      6      -3.3847      1.00000
      7      -2.0684      1.00000
      8      -2.0684      1.00000
      9      -1.3490      1.00000
     10      -1.3490      1.00000
     11      -0.5608      0.00000
     12      -0.5608      0.00000
     13       0.5662      0.00000
     14       0.5662      0.00000
     15       1.4292      0.00000
     16       1.4292      0.00000
     17       2.2576      0.00000
     18       2.2577      0.00000


--------------------------------------------------------------------------------------------------------


 soft charge-density along one line, spin component           1
         0         1         2         3         4         5         6         7         8         9
 total charge-density along one line
 
 soft charge-density along one line, spin component           2
         0         1         2         3         4         5         6         7         8         9
 total charge-density along one line
 
 soft charge-density along one line, spin component           3
         0         1         2         3         4         5         6         7         8         9
 total charge-density along one line
 
 soft charge-density along one line, spin component           4
         0         1         2         3         4         5         6         7         8         9
 total charge-density along one line
 
 pseudopotential strength for first ion, spin component:           1
 50.884   0.000  58.100   0.000   0.000   0.000  -0.118   0.000   0.000   0.000   0.000   0.000  -0.099   0.000   0.000   0.000
 58.100   0.000  66.359   0.000   0.000   0.000  -0.134   0.000   0.000   0.000   0.000   0.000  -0.112   0.000   0.000   0.000
  0.000   0.000   0.000   0.000  10.745   0.000   0.000   0.000   0.000   0.537   9.139   0.000   0.000   0.000   0.000   0.447
 -0.118   0.000  -0.134   0.000   0.000   0.000  10.738   0.000   0.000   0.000   0.000   0.000   9.133   0.000   0.000   0.000
  0.000   0.000   0.000   0.000   0.000  -0.537   0.000   0.000  10.745   0.000   0.000  -0.447   0.000   0.000   9.139   0.000
  0.000   0.000   0.000   0.000   9.139   0.000   0.000   0.000   0.000   0.447   7.850   0.000   0.000   0.000   0.000   0.372
 -0.099   0.000  -0.112   0.000   0.000   0.000   9.133   0.000   0.000   0.000   0.000   0.000   7.845   0.000   0.000   0.000
  0.000   0.000   0.000   0.000   0.000  -0.447   0.000   0.000   9.139   0.000   0.000  -0.372   0.000   0.000   7.850   0.000
  0.000   0.000   0.000   0.000   0.000   0.000   0.000   0.000   0.001   0.000   0.000   0.000   0.000   0.000   0.001   0.000
  0.000   0.000   0.000   0.000  -0.022   0.000   0.000   0.000   0.000   0.000  -0.019   0.000   0.000   0.000   0.000   0.000
 -0.007   0.000  -0.008   0.000   0.000   0.000  -0.027   0.000   0.000   0.000   0.000   0.000  -0.024   0.000   0.000   0.000
  0.000   0.000   0.000   0.000   0.000   0.000   0.000   0.000  -0.022   0.000   0.000   0.000   0.000   0.000  -0.019   0.000
  0.000   0.000   0.000   0.000   0.001   0.000   0.000   0.000   0.000   0.000   0.001   0.000   0.000   0.000   0.000   0.000
 pseudopotential strength for first ion, spin component:           2
  0.000   0.000   0.000   0.000   0.000   0.000   0.000   0.000   0.000   0.000   0.000   0.000   0.000   0.000   0.000   0.000
  0.000   0.000   0.000   0.000   0.000   0.000   0.000   0.000   0.000   0.000   0.000   0.000   0.000   0.000   0.000   0.000
  0.000   0.000   0.000   0.000   0.000   0.000   0.000  -0.537   0.000   0.000   0.000   0.000   0.000  -0.447   0.000   0.000
  0.000   0.000   0.000   0.000   0.000   0.537   0.000   0.000  -0.537   0.000   0.000   0.447   0.000   0.000  -0.447   0.000
  0.000   0.000   0.000   0.000   0.000   0.000   0.537   0.000   0.000   0.000   0.000   0.000   0.447   0.000   0.000   0.000
  0.000   0.000   0.000   0.000   0.000   0.000   0.000  -0.447   0.000   0.000   0.000   0.000   0.000  -0.372   0.000   0.000
  0.000   0.000   0.000   0.000   0.000   0.447   0.000   0.000  -0.447   0.000   0.000   0.372   0.000   0.000  -0.372   0.000
  0.000   0.000   0.000   0.000   0.000   0.000   0.447   0.000   0.000   0.000   0.000   0.000   0.372   0.000   0.000   0.000
  0.000   0.000   0.000   0.000   0.000   0.000   0.000   0.000   0.000   0.000   0.000   0.000   0.000   0.000   0.000   0.000
  0.000   0.000   0.000   0.000   0.000   0.000   0.000   0.000   0.000   0.000   0.000   0.000   0.000   0.000   0.000   0.000
  0.000   0.000   0.000   0.000   0.000   0.000   0.000   0.000   0.000   0.000   0.000   0.000   0.000   0.000   0.000   0.000
  0.000   0.000   0.000   0.000   0.000   0.000   0.000   0.000   0.000   0.000   0.000   0.000   0.000   0.000   0.000   0.000
  0.000   0.000   0.000   0.000   0.000   0.000   0.000   0.000   0.000   0.000   0.000   0.000   0.000   0.000   0.000   0.000
 pseudopotential strength for first ion, spin component:           3
  0.000   0.000   0.000   0.000   0.000   0.000   0.000   0.000   0.000   0.000   0.000   0.000   0.000   0.000   0.000   0.000
  0.000   0.000   0.000   0.000   0.000   0.000   0.000   0.000   0.000   0.000   0.000   0.000   0.000   0.000   0.000   0.000
  0.000   0.000   0.000   0.000   0.000   0.000   0.000  -0.537   0.000   0.000   0.000   0.000   0.000  -0.447   0.000   0.000
  0.000   0.000   0.000   0.000   0.000   0.537   0.000   0.000   0.537   0.000   0.000   0.447   0.000   0.000   0.447   0.000
  0.000   0.000   0.000   0.000   0.000   0.000  -0.537   0.000   0.000   0.000   0.000   0.000  -0.447   0.000   0.000   0.000
  0.000   0.000   0.000   0.000   0.000   0.000   0.000  -0.447   0.000   0.000   0.000   0.000   0.000  -0.372   0.000   0.000
  0.000   0.000   0.000   0.000   0.000   0.447   0.000   0.000   0.447   0.000   0.000   0.372   0.000   0.000   0.372   0.000
  0.000   0.000   0.000   0.000   0.000   0.000  -0.447   0.000   0.000   0.000   0.000   0.000  -0.372   0.000   0.000   0.000
  0.000   0.000   0.000   0.000   0.000   0.000   0.000   0.000   0.000   0.000   0.000   0.000   0.000   0.000   0.000   0.000
  0.000   0.000   0.000   0.000   0.000   0.000   0.000   0.000   0.000   0.000   0.000   0.000   0.000   0.000   0.000   0.000
  0.000   0.000   0.000   0.000   0.000   0.000   0.000   0.000   0.000   0.000   0.000   0.000   0.000   0.000   0.000   0.000
  0.000   0.000   0.000   0.000   0.000   0.000   0.000   0.000   0.000   0.000   0.000   0.000   0.000   0.000   0.000   0.000
  0.000   0.000   0.000   0.000   0.000   0.000   0.000   0.000   0.000   0.000   0.000   0.000   0.000   0.000   0.000   0.000
 pseudopotential strength for first ion, spin component:           4
 50.884   0.000  58.100   0.000   0.000   0.000  -0.118   0.000   0.000   0.000   0.000   0.000  -0.099   0.000   0.000   0.000
 58.100   0.000  66.359   0.000   0.000   0.000  -0.134   0.000   0.000   0.000   0.000   0.000  -0.112   0.000   0.000   0.000
  0.000   0.000   0.000   0.000  10.745   0.000   0.000   0.000   0.000  -0.537   9.139   0.000   0.000   0.000   0.000  -0.447
 -0.118   0.000  -0.134   0.000   0.000   0.000  10.738   0.000   0.000   0.000   0.000   0.000   9.133   0.000   0.000   0.000
  0.000   0.000   0.000   0.000   0.000   0.537   0.000   0.000  10.745   0.000   0.000   0.447   0.000   0.000   9.139   0.000
  0.000   0.000   0.000   0.000   9.139   0.000   0.000   0.000   0.000  -0.447   7.850   0.000   0.000   0.000   0.000  -0.372
 -0.099   0.000  -0.112   0.000   0.000   0.000   9.133   0.000   0.000   0.000   0.000   0.000   7.845   0.000   0.000   0.000
  0.000   0.000   0.000   0.000   0.000   0.447   0.000   0.000   9.139   0.000   0.000   0.372   0.000   0.000   7.850   0.000
  0.000   0.000   0.000   0.000   0.000   0.000   0.000   0.000   0.001   0.000   0.000   0.000   0.000   0.000   0.001   0.000
  0.000   0.000   0.000   0.000  -0.022   0.000   0.000   0.000   0.000   0.000  -0.019   0.000   0.000   0.000   0.000   0.000
 -0.007   0.000  -0.008   0.000   0.000   0.000  -0.027   0.000   0.000   0.000   0.000   0.000  -0.024   0.000   0.000   0.000
  0.000   0.000   0.000   0.000   0.000   0.000   0.000   0.000  -0.022   0.000   0.000   0.000   0.000   0.000  -0.019   0.000
  0.000   0.000   0.000   0.000   0.001   0.000   0.000   0.000   0.000   0.000   0.001   0.000   0.000   0.000   0.000   0.000
 total augmentation occupancy for first ion, spin component:           1
  2.000   0.000   0.000   0.000   0.000   0.000   0.000   0.000   0.000   0.000   0.000   0.000   0.000
  0.000   0.000   0.000   0.000   0.000   0.000   0.000   0.000   0.000   0.000   0.000   0.000   0.000
  0.000   0.000   1.000   0.000   0.000   0.000   0.000   0.000   0.000   0.000   0.000   0.000   0.000
  0.000   0.000   0.000   1.000   0.000   0.000   0.000   0.000   0.000   0.000   0.000   0.000   0.000
  0.000   0.000   0.000   0.000   1.000   0.000   0.000   0.000   0.000   0.000   0.000   0.000   0.000
  0.000   0.000   0.000   0.000   0.000   0.000   0.000   0.000   0.000   0.000   0.000   0.000   0.000
  0.000   0.000   0.000   0.000   0.000   0.000   0.000   0.000   0.000   0.000   0.000   0.000   0.000
  0.000   0.000   0.000   0.000   0.000   0.000   0.000   0.000   0.000   0.000   0.000   0.000   0.000
  0.000   0.000   0.000   0.000   0.000   0.000   0.000   0.000   0.000   0.000   0.000   0.000   0.000
  0.000   0.000   0.000   0.000   0.000   0.000   0.000   0.000   0.000   0.000   0.000   0.000   0.000
  0.000   0.000   0.000   0.000   0.000   0.000   0.000   0.000   0.000   0.000   0.000   0.000   0.000
  0.000   0.000   0.000   0.000   0.000   0.000   0.000   0.000   0.000   0.000   0.000   0.000   0.000
  0.000   0.000   0.000   0.000   0.000   0.000   0.000   0.000   0.000   0.000   0.000   0.000   0.000
 total augmentation occupancy for first ion, spin component:           2
  0.000   0.000   0.000   0.000   0.000   0.000   0.000   0.000   0.000   0.000   0.000   0.000   0.000
  0.000   0.000   0.000   0.000   0.000   0.000   0.000   0.000   0.000   0.000   0.000   0.000   0.000
  0.000   0.000   0.000   0.000   0.000   0.000   0.000   0.000   0.000   0.000   0.000   0.000   0.000
  0.000   0.000   0.000   0.000   0.000   0.000   0.000   0.000   0.000   0.000   0.000   0.000   0.000
  0.000   0.000   0.000   0.000   0.000   0.000   0.000   0.000   0.000   0.000   0.000   0.000   0.000
  0.000   0.000   0.000   0.000   0.000   0.000   0.000   0.000   0.000   0.000   0.000   0.000   0.000
  0.000   0.000   0.000   0.000   0.000   0.000   0.000   0.000   0.000   0.000   0.000   0.000   0.000
  0.000   0.000   0.000   0.000   0.000   0.000   0.000   0.000   0.000   0.000   0.000   0.000   0.000
  0.000   0.000   0.000   0.000   0.000   0.000   0.000   0.000   0.000   0.000   0.000   0.000   0.000
  0.000   0.000   0.000   0.000   0.000   0.000   0.000   0.000   0.000   0.000   0.000   0.000   0.000
  0.000   0.000   0.000   0.000   0.000   0.000   0.000   0.000   0.000   0.000   0.000   0.000   0.000
  0.000   0.000   0.000   0.000   0.000   0.000   0.000   0.000   0.000   0.000   0.000   0.000   0.000
  0.000   0.000   0.000   0.000   0.000   0.000   0.000   0.000   0.000   0.000   0.000   0.000   0.000
 total augmentation occupancy for first ion, spin component:           3
  0.000   0.000   0.000   0.000   0.000   0.000   0.000   0.000   0.000   0.000   0.000   0.000   0.000
  0.000   0.000   0.000   0.000   0.000   0.000   0.000   0.000   0.000   0.000   0.000   0.000   0.000
  0.000   0.000   0.000   0.000   0.000   0.000   0.000   0.000   0.000   0.000   0.000   0.000   0.000
  0.000   0.000   0.000   0.000   0.000   0.000   0.000   0.000   0.000   0.000   0.000   0.000   0.000
  0.000   0.000   0.000   0.000   0.000   0.000   0.000   0.000   0.000   0.000   0.000   0.000   0.000
  0.000   0.000   0.000   0.000   0.000   0.000   0.000   0.000   0.000   0.000   0.000   0.000   0.000
  0.000   0.000   0.000   0.000   0.000   0.000   0.000   0.000   0.000   0.000   0.000   0.000   0.000
  0.000   0.000   0.000   0.000   0.000   0.000   0.000   0.000   0.000   0.000   0.000   0.000   0.000
  0.000   0.000   0.000   0.000   0.000   0.000   0.000   0.000   0.000   0.000   0.000   0.000   0.000
  0.000   0.000   0.000   0.000   0.000   0.000   0.000   0.000   0.000   0.000   0.000   0.000   0.000
  0.000   0.000   0.000   0.000   0.000   0.000   0.000   0.000   0.000   0.000   0.000   0.000   0.000
  0.000   0.000   0.000   0.000   0.000   0.000   0.000   0.000   0.000   0.000   0.000   0.000   0.000
  0.000   0.000   0.000   0.000   0.000   0.000   0.000   0.000   0.000   0.000   0.000   0.000   0.000
 total augmentation occupancy for first ion, spin component:           4
  0.000   0.000   0.000   0.000   0.000   0.000   0.000   0.000   0.000   0.000   0.000   0.000   0.000
  0.000   0.000   0.000   0.000   0.000   0.000   0.000   0.000   0.000   0.000   0.000   0.000   0.000
  0.000   0.000   0.000   0.000   0.000   0.000   0.000   0.000   0.000   0.000   0.000   0.000   0.000
  0.000   0.000   0.000   0.000   0.000   0.000   0.000   0.000   0.000   0.000   0.000   0.000   0.000
  0.000   0.000   0.000   0.000   0.000   0.000   0.000   0.000   0.000   0.000   0.000   0.000   0.000
  0.000   0.000   0.000   0.000   0.000   0.000   0.000   0.000   0.000   0.000   0.000   0.000   0.000
  0.000   0.000   0.000   0.000   0.000   0.000   0.000   0.000   0.000   0.000   0.000   0.000   0.000
  0.000   0.000   0.000   0.000   0.000   0.000   0.000   0.000   0.000   0.000   0.000   0.000   0.000
  0.000   0.000   0.000   0.000   0.000   0.000   0.000   0.000   0.000   0.000   0.000   0.000   0.000
  0.000   0.000   0.000   0.000   0.000   0.000   0.000   0.000   0.000   0.000   0.000   0.000   0.000
  0.000   0.000   0.000   0.000   0.000   0.000   0.000   0.000   0.000   0.000   0.000   0.000   0.000
  0.000   0.000   0.000   0.000   0.000   0.000   0.000   0.000   0.000   0.000   0.000   0.000   0.000
  0.000   0.000   0.000   0.000   0.000   0.000   0.000   0.000   0.000   0.000   0.000   0.000   0.000


------------------------ aborting loop because EDIFF is reached ----------------------------------------


    CHARGE:  cpu time    0.7744: real time    0.7748
    FORLOC:  cpu time    0.0200: real time    0.0200
    FORNL :  cpu time    1.3581: real time    1.3582
    STRESS:  cpu time    3.4279: real time    3.4315
    FORCOR:  cpu time    0.8958: real time    0.8969
    FORHAR:  cpu time    0.0788: real time    0.0789
    OFIELD:  cpu time    0.0034: real time    0.0034

  FORCE on cell =-STRESS in cart. coord.  units (eV):
  Direction    XX          YY          ZZ          XY          YZ          ZX
  --------------------------------------------------------------------------------------
  Alpha Z     0.95897     0.95897     0.95897
  Ewald     306.97130   306.97130  -502.40652     0.00000     0.00000     0.00000
  Hartree   355.68834   355.68836  -342.72847    -0.00002    -0.00001    -0.00001
  E(xc)     -45.67462   -45.67462   -46.04563     0.00000     0.00000     0.00000
  Local    -795.15149  -795.15158   710.32382     0.00008     0.00002     0.00004
  n-local   151.60748   151.60750   153.10694    -0.00002    -0.00001    -0.00001
  augment   -53.55228   -53.55227   -54.32186    -0.00001     0.00000    -0.00001
  Kinetic    78.97294    78.97293    80.92233     0.00001     0.00000     0.00000
  Fock        0.00000     0.00000     0.00000     0.00000     0.00000     0.00000
  -------------------------------------------------------------------------------------
  Total      -0.17936    -0.17941    -0.19040     0.00005     0.00001     0.00003
  in kB      -1.14848    -1.14879    -1.21917     0.00029     0.00008     0.00016
  external pressure =       -1.17 kB  Pullay stress =        0.00 kB


 VOLUME and BASIS-vectors are now :
 -----------------------------------------------------------------------------
  energy-cutoff  :      400.00
  volume of cell :      250.22
      direct lattice vectors                 reciprocal lattice vectors
     4.388842160  0.000000000  0.000000000     0.227850527 -0.131549563  0.000000000
     2.194421080  3.800848804  0.000000000     0.000000000  0.263099126  0.000000000
     0.000000000  0.000000000 15.000000000     0.000000000  0.000000000  0.066666667

  length of vectors
     4.388842160  4.388842160 15.000000000     0.263099126  0.263099126  0.066666667


 FORCES acting on ions
    electron-ion (+dipol)            ewald-force                    non-local-force                 convergence-correction
 -----------------------------------------------------------------------------------------------
   0.140E-03 0.800E-04 -.805E+02   0.170E-11 0.970E-12 0.853E+02   -.723E-04 -.418E-04 -.468E+01   -.767E-04 -.441E-04 -.353E-01
   -.137E-03 -.784E-04 0.805E+02   -.171E-11 -.971E-12 -.853E+02   0.702E-04 0.407E-04 0.468E+01   0.767E-04 0.440E-04 0.353E-01
 -----------------------------------------------------------------------------------------------
   0.241E-05 0.155E-05 0.483E-05   -.237E-14 -.538E-15 0.000E+00   -.210E-05 -.107E-05 -.364E-05   0.305E-08 -.120E-06 -.260E-06
 
 
 POSITION                                       TOTAL-FORCE (eV/Angst)
 -----------------------------------------------------------------------------------
      1.09721      0.63347      0.86943        -0.000010     -0.000006     -0.001527
      5.48605      3.16737     14.13057         0.000010      0.000006      0.001527
 -----------------------------------------------------------------------------------
    total drift:                                0.000000      0.000000      0.000001


--------------------------------------------------------------------------------------------------------



  FREE ENERGIE OF THE ION-ELECTRON SYSTEM (eV)
  ---------------------------------------------------
  free  energy   TOTEN  =        -8.72969061 eV

  energy  without entropy=       -8.72969061  energy(sigma->0) =       -8.72969061
 


--------------------------------------------------------------------------------------------------------


    POTLOK:  cpu time    0.8562: real time    0.8562


--------------------------------------------------------------------------------------------------------


 writing wavefunctions
     LOOP+:  cpu time   97.8572: real time   97.9098
    4ORBIT:  cpu time    0.0000: real time    0.0000

 Spin-Orbit-Coupling matrix elements

 Ion:    1  E_soc:     -1.2780927
 l=   1
     0.0000000    -0.2135855    -0.2111260
    -0.2135855     0.0000000    -0.2135855
    -0.2111260    -0.2135855     0.0000000
 l=   2
     0.0000000    -0.0000781     0.0000000    -0.0000781    -0.0003555
    -0.0000781     0.0000000    -0.0000988     0.0001163    -0.0000781
     0.0000000    -0.0000988     0.0000000    -0.0000988     0.0000000
    -0.0000781     0.0001163    -0.0000988     0.0000000    -0.0000781
    -0.0003555    -0.0000781     0.0000000    -0.0000781     0.0000000
 l=   3
     0.0000000     0.0000000     0.0000000     0.0000000     0.0000000     0.0000000     0.0000000
     0.0000000     0.0000000     0.0000000     0.0000000     0.0000000     0.0000000     0.0000000
     0.0000000     0.0000000     0.0000000     0.0000000     0.0000000     0.0000000     0.0000000
     0.0000000     0.0000000     0.0000000     0.0000000     0.0000000     0.0000000     0.0000000
     0.0000000     0.0000000     0.0000000     0.0000000     0.0000000     0.0000000     0.0000000
     0.0000000     0.0000000     0.0000000     0.0000000     0.0000000     0.0000000     0.0000000
     0.0000000     0.0000000     0.0000000     0.0000000     0.0000000     0.0000000     0.0000000

 Ion:    2  E_soc:     -1.2780928
 l=   1
     0.0000000    -0.2135855    -0.2111260
    -0.2135855     0.0000000    -0.2135855
    -0.2111260    -0.2135855     0.0000000
 l=   2
     0.0000000    -0.0000781     0.0000000    -0.0000781    -0.0003555
    -0.0000781     0.0000000    -0.0000988     0.0001163    -0.0000781
     0.0000000    -0.0000988     0.0000000    -0.0000988     0.0000000
    -0.0000781     0.0001163    -0.0000988     0.0000000    -0.0000781
    -0.0003555    -0.0000781     0.0000000    -0.0000781     0.0000000
 l=   3
     0.0000000     0.0000000     0.0000000     0.0000000     0.0000000     0.0000000     0.0000000
     0.0000000     0.0000000     0.0000000     0.0000000     0.0000000     0.0000000     0.0000000
     0.0000000     0.0000000     0.0000000     0.0000000     0.0000000     0.0000000     0.0000000
     0.0000000     0.0000000     0.0000000     0.0000000     0.0000000     0.0000000     0.0000000
     0.0000000     0.0000000     0.0000000     0.0000000     0.0000000     0.0000000     0.0000000
     0.0000000     0.0000000     0.0000000     0.0000000     0.0000000     0.0000000     0.0000000
     0.0000000     0.0000000     0.0000000     0.0000000     0.0000000     0.0000000     0.0000000

 total amount of memory used by VASP on root node   593887. kBytes
========================================================================

   base      :      30000. kBytes
   nonl-proj :      68661. kBytes
   fftplans  :      25064. kBytes
   grid      :      88473. kBytes
   one-center:         64. kBytes
   wavefun   :     381625. kBytes
 
  
  
 General timing and accounting informations for this job:
 ========================================================
  
                  Total CPU time used (sec):      102.023
                            User time (sec):      101.487
                          System time (sec):        0.536
                         Elapsed time (sec):      102.092
  
                   Maximum memory used (kb):   714575872.
                   Average memory used (kb):           0.
  
                          Minor page faults:       204241
                          Major page faults:          138
                 Voluntary context switches:          368
