<?xml version="1.0" encoding="ISO-8859-1"?>
<modeling>
 <generator>
  <i name="program" type="string">vasp </i>
  <i name="version" type="string">5.4.1  </i>
  <i name="subversion" type="string">24Jun15 (build Feb 01 2016 10:51:08) complex                          parallel </i>
  <i name="platform" type="string">IFC91_ompi </i>
  <i name="date" type="string">2016 06 16 </i>
  <i name="time" type="string">13:24:42 </i>
 </generator>
 <incar>
  <i type="string" name="SYSTEM"> MoTe2 Hyun-Jung Kim.</i>
  <i type="int" name="ISTART">     1</i>
  <i type="string" name="PREC">n      ! determines the energy</i>
  <i type="logical" name="LSORBIT"> T  </i>
  <v name="SAXIS">      0.00000000      0.00000000      1.00000000</v>
  <i type="int" name="ICHARG">    11</i>
  <i type="int" name="NELM">   200</i>
  <i name="EDIFF">      0.00000100</i>
  <i type="int" name="ISYM">    -1</i>
  <i name="ENCUT">    400.00000000</i>
  <v name="MAGMOM">      0.00000000      0.00000000      0.00000000      0.00000000      0.00000000      0.00000000</v>
  <i type="int" name="ISMEAR">     0</i>
  <i name="SIGMA">      0.02000000</i>
  <i type="logical" name="LWAVE"> T  </i>
  <i type="logical" name="LCHARG"> F  </i>
  <i type="logical" name="LVTOT"> F  </i>
  <i type="logical" name="LVHAR"> F  </i>
  <i type="logical" name="GGA_COMPAT"> F  </i>
  <v type="int" name="KPOINT_BSE">    -1     0     0     0</v>
  <i type="int" name="NELM">   200</i>
 </incar>
 <kpoints>
  <generation param="Gamma">
   <v type="int" name="divisions">      12       12        1 </v>
   <v name="usershift">      0.00000000       0.00000000       0.00000000 </v>
   <v name="genvec1">      0.08333333       0.00000000       0.00000000 </v>
   <v name="genvec2">      0.00000000       0.08333333       0.00000000 </v>
   <v name="genvec3">      0.00000000       0.00000000       1.00000000 </v>
   <v name="shift">      0.00000000       0.00000000       0.00000000 </v>
  </generation>
  <varray name="kpointlist" >
   <v>       0.00000000       0.00000000       0.00000000 </v>
   <v>       0.08333333       0.00000000       0.00000000 </v>
   <v>       0.16666667       0.00000000       0.00000000 </v>
   <v>       0.25000000       0.00000000       0.00000000 </v>
   <v>       0.33333333       0.00000000       0.00000000 </v>
   <v>       0.41666667       0.00000000       0.00000000 </v>
   <v>       0.50000000       0.00000000       0.00000000 </v>
   <v>      -0.41666667       0.00000000       0.00000000 </v>
   <v>      -0.33333333       0.00000000       0.00000000 </v>
   <v>      -0.25000000       0.00000000       0.00000000 </v>
   <v>      -0.16666667       0.00000000       0.00000000 </v>
   <v>      -0.08333333       0.00000000       0.00000000 </v>
   <v>       0.00000000       0.08333333       0.00000000 </v>
   <v>       0.08333333       0.08333333       0.00000000 </v>
   <v>       0.16666667       0.08333333       0.00000000 </v>
   <v>       0.25000000       0.08333333       0.00000000 </v>
   <v>       0.33333333       0.08333333       0.00000000 </v>
   <v>       0.41666667       0.08333333       0.00000000 </v>
   <v>       0.50000000       0.08333333       0.00000000 </v>
   <v>      -0.41666667       0.08333333       0.00000000 </v>
   <v>      -0.33333333       0.08333333       0.00000000 </v>
   <v>      -0.25000000       0.08333333       0.00000000 </v>
   <v>      -0.16666667       0.08333333       0.00000000 </v>
   <v>      -0.08333333       0.08333333       0.00000000 </v>
   <v>       0.00000000       0.16666667       0.00000000 </v>
   <v>       0.08333333       0.16666667       0.00000000 </v>
   <v>       0.16666667       0.16666667       0.00000000 </v>
   <v>       0.25000000       0.16666667       0.00000000 </v>
   <v>       0.33333333       0.16666667       0.00000000 </v>
   <v>       0.41666667       0.16666667       0.00000000 </v>
   <v>       0.50000000       0.16666667       0.00000000 </v>
   <v>      -0.41666667       0.16666667       0.00000000 </v>
   <v>      -0.33333333       0.16666667       0.00000000 </v>
   <v>      -0.25000000       0.16666667       0.00000000 </v>
   <v>      -0.16666667       0.16666667       0.00000000 </v>
   <v>      -0.08333333       0.16666667       0.00000000 </v>
   <v>       0.00000000       0.25000000       0.00000000 </v>
   <v>       0.08333333       0.25000000       0.00000000 </v>
   <v>       0.16666667       0.25000000       0.00000000 </v>
   <v>       0.25000000       0.25000000       0.00000000 </v>
   <v>       0.33333333       0.25000000       0.00000000 </v>
   <v>       0.41666667       0.25000000       0.00000000 </v>
   <v>       0.50000000       0.25000000       0.00000000 </v>
   <v>      -0.41666667       0.25000000       0.00000000 </v>
   <v>      -0.33333333       0.25000000       0.00000000 </v>
   <v>      -0.25000000       0.25000000       0.00000000 </v>
   <v>      -0.16666667       0.25000000       0.00000000 </v>
   <v>      -0.08333333       0.25000000       0.00000000 </v>
   <v>       0.00000000       0.33333333       0.00000000 </v>
   <v>       0.08333333       0.33333333       0.00000000 </v>
   <v>       0.16666667       0.33333333       0.00000000 </v>
   <v>       0.25000000       0.33333333       0.00000000 </v>
   <v>       0.33333333       0.33333333       0.00000000 </v>
   <v>       0.41666667       0.33333333       0.00000000 </v>
   <v>       0.50000000       0.33333333       0.00000000 </v>
   <v>      -0.41666667       0.33333333       0.00000000 </v>
   <v>      -0.33333333       0.33333333       0.00000000 </v>
   <v>      -0.25000000       0.33333333       0.00000000 </v>
   <v>      -0.16666667       0.33333333       0.00000000 </v>
   <v>      -0.08333333       0.33333333       0.00000000 </v>
   <v>       0.00000000       0.41666667       0.00000000 </v>
   <v>       0.08333333       0.41666667       0.00000000 </v>
   <v>       0.16666667       0.41666667       0.00000000 </v>
   <v>       0.25000000       0.41666667       0.00000000 </v>
   <v>       0.33333333       0.41666667       0.00000000 </v>
   <v>       0.41666667       0.41666667       0.00000000 </v>
   <v>       0.50000000       0.41666667       0.00000000 </v>
   <v>      -0.41666667       0.41666667       0.00000000 </v>
   <v>      -0.33333333       0.41666667       0.00000000 </v>
   <v>      -0.25000000       0.41666667       0.00000000 </v>
   <v>      -0.16666667       0.41666667       0.00000000 </v>
   <v>      -0.08333333       0.41666667       0.00000000 </v>
   <v>       0.00000000       0.50000000       0.00000000 </v>
   <v>       0.08333333       0.50000000       0.00000000 </v>
   <v>       0.16666667       0.50000000       0.00000000 </v>
   <v>       0.25000000       0.50000000       0.00000000 </v>
   <v>       0.33333333       0.50000000       0.00000000 </v>
   <v>       0.41666667       0.50000000       0.00000000 </v>
   <v>       0.50000000       0.50000000       0.00000000 </v>
   <v>      -0.41666667       0.50000000       0.00000000 </v>
   <v>      -0.33333333       0.50000000       0.00000000 </v>
   <v>      -0.25000000       0.50000000       0.00000000 </v>
   <v>      -0.16666667       0.50000000       0.00000000 </v>
   <v>      -0.08333333       0.50000000       0.00000000 </v>
   <v>       0.00000000      -0.41666667       0.00000000 </v>
   <v>       0.08333333      -0.41666667       0.00000000 </v>
   <v>       0.16666667      -0.41666667       0.00000000 </v>
   <v>       0.25000000      -0.41666667       0.00000000 </v>
   <v>       0.33333333      -0.41666667       0.00000000 </v>
   <v>       0.41666667      -0.41666667       0.00000000 </v>
   <v>       0.50000000      -0.41666667       0.00000000 </v>
   <v>      -0.41666667      -0.41666667       0.00000000 </v>
   <v>      -0.33333333      -0.41666667       0.00000000 </v>
   <v>      -0.25000000      -0.41666667       0.00000000 </v>
   <v>      -0.16666667      -0.41666667       0.00000000 </v>
   <v>      -0.08333333      -0.41666667       0.00000000 </v>
   <v>       0.00000000      -0.33333333       0.00000000 </v>
   <v>       0.08333333      -0.33333333       0.00000000 </v>
   <v>       0.16666667      -0.33333333       0.00000000 </v>
   <v>       0.25000000      -0.33333333       0.00000000 </v>
   <v>       0.33333333      -0.33333333       0.00000000 </v>
   <v>       0.41666667      -0.33333333       0.00000000 </v>
   <v>       0.50000000      -0.33333333       0.00000000 </v>
   <v>      -0.41666667      -0.33333333       0.00000000 </v>
   <v>      -0.33333333      -0.33333333       0.00000000 </v>
   <v>      -0.25000000      -0.33333333       0.00000000 </v>
   <v>      -0.16666667      -0.33333333       0.00000000 </v>
   <v>      -0.08333333      -0.33333333       0.00000000 </v>
   <v>       0.00000000      -0.25000000       0.00000000 </v>
   <v>       0.08333333      -0.25000000       0.00000000 </v>
   <v>       0.16666667      -0.25000000       0.00000000 </v>
   <v>       0.25000000      -0.25000000       0.00000000 </v>
   <v>       0.33333333      -0.25000000       0.00000000 </v>
   <v>       0.41666667      -0.25000000       0.00000000 </v>
   <v>       0.50000000      -0.25000000       0.00000000 </v>
   <v>      -0.41666667      -0.25000000       0.00000000 </v>
   <v>      -0.33333333      -0.25000000       0.00000000 </v>
   <v>      -0.25000000      -0.25000000       0.00000000 </v>
   <v>      -0.16666667      -0.25000000       0.00000000 </v>
   <v>      -0.08333333      -0.25000000       0.00000000 </v>
   <v>       0.00000000      -0.16666667       0.00000000 </v>
   <v>       0.08333333      -0.16666667       0.00000000 </v>
   <v>       0.16666667      -0.16666667       0.00000000 </v>
   <v>       0.25000000      -0.16666667       0.00000000 </v>
   <v>       0.33333333      -0.16666667       0.00000000 </v>
   <v>       0.41666667      -0.16666667       0.00000000 </v>
   <v>       0.50000000      -0.16666667       0.00000000 </v>
   <v>      -0.41666667      -0.16666667       0.00000000 </v>
   <v>      -0.33333333      -0.16666667       0.00000000 </v>
   <v>      -0.25000000      -0.16666667       0.00000000 </v>
   <v>      -0.16666667      -0.16666667       0.00000000 </v>
   <v>      -0.08333333      -0.16666667       0.00000000 </v>
   <v>       0.00000000      -0.08333333       0.00000000 </v>
   <v>       0.08333333      -0.08333333       0.00000000 </v>
   <v>       0.16666667      -0.08333333       0.00000000 </v>
   <v>       0.25000000      -0.08333333       0.00000000 </v>
   <v>       0.33333333      -0.08333333       0.00000000 </v>
   <v>       0.41666667      -0.08333333       0.00000000 </v>
   <v>       0.50000000      -0.08333333       0.00000000 </v>
   <v>      -0.41666667      -0.08333333       0.00000000 </v>
   <v>      -0.33333333      -0.08333333       0.00000000 </v>
   <v>      -0.25000000      -0.08333333       0.00000000 </v>
   <v>      -0.16666667      -0.08333333       0.00000000 </v>
   <v>      -0.08333333      -0.08333333       0.00000000 </v>
  </varray>
  <varray name="weights" >
   <v>       0.00694444 </v>
   <v>       0.00694444 </v>
   <v>       0.00694444 </v>
   <v>       0.00694444 </v>
   <v>       0.00694444 </v>
   <v>       0.00694444 </v>
   <v>       0.00694444 </v>
   <v>       0.00694444 </v>
   <v>       0.00694444 </v>
   <v>       0.00694444 </v>
   <v>       0.00694444 </v>
   <v>       0.00694444 </v>
   <v>       0.00694444 </v>
   <v>       0.00694444 </v>
   <v>       0.00694444 </v>
   <v>       0.00694444 </v>
   <v>       0.00694444 </v>
   <v>       0.00694444 </v>
   <v>       0.00694444 </v>
   <v>       0.00694444 </v>
   <v>       0.00694444 </v>
   <v>       0.00694444 </v>
   <v>       0.00694444 </v>
   <v>       0.00694444 </v>
   <v>       0.00694444 </v>
   <v>       0.00694444 </v>
   <v>       0.00694444 </v>
   <v>       0.00694444 </v>
   <v>       0.00694444 </v>
   <v>       0.00694444 </v>
   <v>       0.00694444 </v>
   <v>       0.00694444 </v>
   <v>       0.00694444 </v>
   <v>       0.00694444 </v>
   <v>       0.00694444 </v>
   <v>       0.00694444 </v>
   <v>       0.00694444 </v>
   <v>       0.00694444 </v>
   <v>       0.00694444 </v>
   <v>       0.00694444 </v>
   <v>       0.00694444 </v>
   <v>       0.00694444 </v>
   <v>       0.00694444 </v>
   <v>       0.00694444 </v>
   <v>       0.00694444 </v>
   <v>       0.00694444 </v>
   <v>       0.00694444 </v>
   <v>       0.00694444 </v>
   <v>       0.00694444 </v>
   <v>       0.00694444 </v>
   <v>       0.00694444 </v>
   <v>       0.00694444 </v>
   <v>       0.00694444 </v>
   <v>       0.00694444 </v>
   <v>       0.00694444 </v>
   <v>       0.00694444 </v>
   <v>       0.00694444 </v>
   <v>       0.00694444 </v>
   <v>       0.00694444 </v>
   <v>       0.00694444 </v>
   <v>       0.00694444 </v>
   <v>       0.00694444 </v>
   <v>       0.00694444 </v>
   <v>       0.00694444 </v>
   <v>       0.00694444 </v>
   <v>       0.00694444 </v>
   <v>       0.00694444 </v>
   <v>       0.00694444 </v>
   <v>       0.00694444 </v>
   <v>       0.00694444 </v>
   <v>       0.00694444 </v>
   <v>       0.00694444 </v>
   <v>       0.00694444 </v>
   <v>       0.00694444 </v>
   <v>       0.00694444 </v>
   <v>       0.00694444 </v>
   <v>       0.00694444 </v>
   <v>       0.00694444 </v>
   <v>       0.00694444 </v>
   <v>       0.00694444 </v>
   <v>       0.00694444 </v>
   <v>       0.00694444 </v>
   <v>       0.00694444 </v>
   <v>       0.00694444 </v>
   <v>       0.00694444 </v>
   <v>       0.00694444 </v>
   <v>       0.00694444 </v>
   <v>       0.00694444 </v>
   <v>       0.00694444 </v>
   <v>       0.00694444 </v>
   <v>       0.00694444 </v>
   <v>       0.00694444 </v>
   <v>       0.00694444 </v>
   <v>       0.00694444 </v>
   <v>       0.00694444 </v>
   <v>       0.00694444 </v>
   <v>       0.00694444 </v>
   <v>       0.00694444 </v>
   <v>       0.00694444 </v>
   <v>       0.00694444 </v>
   <v>       0.00694444 </v>
   <v>       0.00694444 </v>
   <v>       0.00694444 </v>
   <v>       0.00694444 </v>
   <v>       0.00694444 </v>
   <v>       0.00694444 </v>
   <v>       0.00694444 </v>
   <v>       0.00694444 </v>
   <v>       0.00694444 </v>
   <v>       0.00694444 </v>
   <v>       0.00694444 </v>
   <v>       0.00694444 </v>
   <v>       0.00694444 </v>
   <v>       0.00694444 </v>
   <v>       0.00694444 </v>
   <v>       0.00694444 </v>
   <v>       0.00694444 </v>
   <v>       0.00694444 </v>
   <v>       0.00694444 </v>
   <v>       0.00694444 </v>
   <v>       0.00694444 </v>
   <v>       0.00694444 </v>
   <v>       0.00694444 </v>
   <v>       0.00694444 </v>
   <v>       0.00694444 </v>
   <v>       0.00694444 </v>
   <v>       0.00694444 </v>
   <v>       0.00694444 </v>
   <v>       0.00694444 </v>
   <v>       0.00694444 </v>
   <v>       0.00694444 </v>
   <v>       0.00694444 </v>
   <v>       0.00694444 </v>
   <v>       0.00694444 </v>
   <v>       0.00694444 </v>
   <v>       0.00694444 </v>
   <v>       0.00694444 </v>
   <v>       0.00694444 </v>
   <v>       0.00694444 </v>
   <v>       0.00694444 </v>
   <v>       0.00694444 </v>
   <v>       0.00694444 </v>
   <v>       0.00694444 </v>
   <v>       0.00694444 </v>
  </varray>
 </kpoints>
 <parameters>
  <separator name="general" >
   <i type="string" name="SYSTEM">MoTe2 Hyun-Jung Kim.</i>
   <i type="logical" name="LCOMPAT"> F  </i>
  </separator>
  <separator name="electronic" >
   <i type="string" name="PREC">n</i>
   <i name="ENMAX">    400.00000000</i>
   <i name="ENAUG">    265.42700000</i>
   <i name="EDIFF">      0.00000100</i>
   <i type="int" name="IALGO">    38</i>
   <i type="int" name="IWAVPR">    10</i>
   <i type="int" name="NBANDS">    18</i>
   <i name="NELECT">     10.00000000</i>
   <i type="int" name="TURBO">     0</i>
   <i type="int" name="IRESTART">     0</i>
   <i type="int" name="NREBOOT">     0</i>
   <i type="int" name="NMIN">     0</i>
   <i name="EREF">      0.00000000</i>
   <separator name="electronic smearing" >
    <i type="int" name="ISMEAR">     0</i>
    <i name="SIGMA">      0.02000000</i>
    <i name="KSPACING">      0.50000000</i>
    <i type="logical" name="KGAMMA"> T  </i>
   </separator>
   <separator name="electronic projectors" >
    <i type="logical" name="LREAL"> F  </i>
    <v name="ROPT">      0.00000000</v>
    <i type="int" name="LMAXPAW">  -100</i>
    <i type="int" name="LMAXMIX">     2</i>
    <i type="logical" name="NLSPLINE"> F  </i>
   </separator>
   <separator name="electronic startup" >
    <i type="int" name="ISTART">     0</i>
    <i type="int" name="ICHARG">    11</i>
    <i type="int" name="INIWAV">     1</i>
   </separator>
   <separator name="electronic spin" >
    <i type="int" name="ISPIN">     1</i>
    <i type="logical" name="LNONCOLLINEAR"> T  </i>
    <v name="MAGMOM">      0.00000000      0.00000000      0.00000000      0.00000000      0.00000000      0.00000000</v>
    <i name="NUPDOWN">     -1.00000000</i>
    <i type="logical" name="LSORBIT"> T  </i>
    <v name="SAXIS">      0.00000000      0.00000000      1.00000000</v>
    <i type="logical" name="LSPIRAL"> F  </i>
    <v name="QSPIRAL">      0.00000000      0.00000000      0.00000000</v>
    <i type="logical" name="LZEROZ"> F  </i>
   </separator>
   <separator name="electronic exchange-correlation" >
    <i type="logical" name="LASPH"> F  </i>
    <i type="logical" name="LMETAGGA"> F  </i>
   </separator>
   <separator name="electronic convergence" >
    <i type="int" name="NELM">   200</i>
    <i type="int" name="NELMDL">     0</i>
    <i type="int" name="NELMIN">     2</i>
    <i name="ENINI">    400.00000000</i>
    <separator name="electronic convergence detail" >
     <i type="logical" name="LDIAG"> T  </i>
     <i type="logical" name="LSUBROT"> F  </i>
     <i name="WEIMIN">      0.00000000</i>
     <i name="EBREAK">      0.00000001</i>
     <i name="DEPER">      0.30000000</i>
     <i type="int" name="NRMM">     4</i>
     <i name="TIME">      0.40000000</i>
    </separator>
   </separator>
   <separator name="electronic mixer" >
    <i name="AMIX">      0.40000000</i>
    <i name="BMIX">      1.00000000</i>
    <i name="AMIN">      0.10000000</i>
    <i name="AMIX_MAG">      1.60000000</i>
    <i name="BMIX_MAG">      1.00000000</i>
    <separator name="electronic mixer details" >
     <i type="int" name="IMIX">     4</i>
     <i type="logical" name="MIXFIRST"> F  </i>
     <i type="int" name="MAXMIX">   -45</i>
     <i name="WC">    100.00000000</i>
     <i type="int" name="INIMIX">     1</i>
     <i type="int" name="MIXPRE">     1</i>
     <i type="int" name="MREMOVE">     5</i>
    </separator>
   </separator>
   <separator name="electronic dipolcorrection" >
    <i type="logical" name="LDIPOL"> F  </i>
    <i type="logical" name="LMONO"> F  </i>
    <i type="int" name="IDIPOL">     0</i>
    <i name="EPSILON">      1.00000000</i>
    <v name="DIPOL">   -100.00000000   -100.00000000   -100.00000000</v>
    <i name="EFIELD">      0.00000000</i>
   </separator>
  </separator>
  <separator name="grids" >
   <i type="int" name="NGX">    24</i>
   <i type="int" name="NGY">    24</i>
   <i type="int" name="NGZ">    80</i>
   <i type="int" name="NGXF">    48</i>
   <i type="int" name="NGYF">    48</i>
   <i type="int" name="NGZF">   160</i>
   <i type="logical" name="ADDGRID"> F  </i>
  </separator>
  <separator name="ionic" >
   <i type="int" name="NSW">     0</i>
   <i type="int" name="IBRION">    -1</i>
   <i type="int" name="ISIF">     2</i>
   <i name="PSTRESS">      0.00000000</i>
   <i name="EDIFFG">      0.00001000</i>
   <i type="int" name="NFREE">     0</i>
   <i name="POTIM">      0.50000000</i>
   <i name="SMASS">     -3.00000000</i>
   <i name="SCALEE">      1.00000000</i>
  </separator>
  <separator name="ionic md" >
   <i name="TEBEG">      0.00010000</i>
   <i name="TEEND">      0.00010000</i>
   <i type="int" name="NBLOCK">     1</i>
   <i type="int" name="KBLOCK">     1</i>
   <i type="int" name="NPACO">   256</i>
   <i name="APACO">     16.00000000</i>
  </separator>
  <separator name="symmetry" >
   <i type="int" name="ISYM">    -1</i>
   <i name="SYMPREC">      0.00001000</i>
  </separator>
  <separator name="dos" >
   <i type="logical" name="LORBIT"> F  </i>
   <v name="RWIGS">     -1.00000000</v>
   <i type="int" name="NEDOS">   301</i>
   <i name="EMIN">     10.00000000</i>
   <i name="EMAX">    -10.00000000</i>
   <i name="EFERMI">      0.00000000</i>
  </separator>
  <separator name="writing" >
   <i type="int" name="NWRITE">     2</i>
   <i type="logical" name="LWAVE"> T  </i>
   <i type="logical" name="LCHARG"> F  </i>
   <i type="logical" name="LPARD"> F  </i>
   <i type="logical" name="LVTOT"> F  </i>
   <i type="logical" name="LVHAR"> F  </i>
   <i type="logical" name="LELF"> F  </i>
   <i type="logical" name="LOPTICS"> F  </i>
   <v name="STM">      0.00000000      0.00000000      0.00000000      0.00000000      0.00000000      0.00000000      0.00000000</v>
  </separator>
  <separator name="performance" >
   <i type="int" name="NPAR">     1</i>
   <i type="int" name="NSIM">     4</i>
   <i type="int" name="NBLK">    -1</i>
   <i type="logical" name="LPLANE"> T  </i>
   <i type="logical" name="LSCALAPACK"> F  </i>
   <i type="logical" name="LSCAAWARE"> F  </i>
   <i type="logical" name="LSCALU"> F  </i>
   <i type="logical" name="LASYNC"> F  </i>
   <i type="logical" name="LORBITALREAL"> F  </i>
  </separator>
  <separator name="miscellaneous" >
   <i type="int" name="IDIOT">     3</i>
   <i type="logical" name="LMUSIC"> F  </i>
   <v name="POMASS">    208.98000000</v>
   <v name="DARWINR">      0.00000000</v>
   <v name="DARWINV">      1.00000000</v>
   <i type="logical" name="LCORR"> T  </i>
  </separator>
  <i type="logical" name="GGA_COMPAT"> F  </i>
  <i type="logical" name="LBERRY"> F  </i>
  <i type="int" name="ICORELEVEL">     0</i>
  <i type="logical" name="LDAU"> F  </i>
  <i type="int" name="I_CONSTRAINED_M">     0</i>
  <separator name="electronic exchange-correlation" >
   <i type="string" name="GGA">--</i>
   <i type="int" name="VOSKOWN">     0</i>
   <i type="logical" name="LHFCALC"> F  </i>
   <i type="string" name="PRECFOCK"></i>
   <i type="logical" name="LSYMGRAD"> F  </i>
   <i type="logical" name="LHFONE"> F  </i>
   <i type="logical" name="LRHFCALC"> F  </i>
   <i type="logical" name="LTHOMAS"> F  </i>
   <i type="logical" name="LMODELHF"> F  </i>
   <i name="ENCUT4O">     -1.00000000</i>
   <i type="int" name="EXXOEP">     0</i>
   <i type="int" name="FOURORBIT">     0</i>
   <i name="AEXX">      0.00000000</i>
   <i name="HFALPHA">      0.00000000</i>
   <i name="MCALPHA">      0.00000000</i>
   <i name="ALDAX">      1.00000000</i>
   <i name="AGGAX">      1.00000000</i>
   <i name="ALDAC">      1.00000000</i>
   <i name="AGGAC">      1.00000000</i>
   <i type="int" name="NKREDX">     1</i>
   <i type="int" name="NKREDY">     1</i>
   <i type="int" name="NKREDZ">     1</i>
   <i type="logical" name="SHIFTRED"> F  </i>
   <i type="logical" name="ODDONLY"> F  </i>
   <i type="logical" name="EVENONLY"> F  </i>
   <i type="int" name="LMAXFOCK">     0</i>
   <i type="int" name="NMAXFOCKAE">     0</i>
   <i type="logical" name="LFOCKAEDFT"> F  </i>
   <i name="HFSCREEN">      0.00000000</i>
   <i name="HFSCREENC">      0.00000000</i>
   <i type="int" name="NBANDSGWLOW">     0</i>
  </separator>
  <separator name="vdW DFT" >
   <i type="logical" name="LUSE_VDW"> F  </i>
   <i name="Zab_VDW">     -0.84910000</i>
   <i name="PARAM1">      0.12340000</i>
   <i name="PARAM2">      1.00000000</i>
   <i name="PARAM3">      0.00000000</i>
  </separator>
  <separator name="model GW" >
   <i type="int" name="MODEL_GW">     0</i>
   <i name="MODEL_EPS0">     75.06596463</i>
   <i name="MODEL_ALPHA">      1.00000000</i>
  </separator>
  <separator name="linear response parameters" >
   <i type="logical" name="LEPSILON"> F  </i>
   <i type="logical" name="LRPA"> F  </i>
   <i type="logical" name="LNABLA"> F  </i>
   <i type="logical" name="LVEL"> F  </i>
   <i type="int" name="KINTER">     0</i>
   <i name="CSHIFT">      0.10000000</i>
   <i name="OMEGAMAX">     -1.00000000</i>
   <i name="DEG_THRESHOLD">      0.00200000</i>
  </separator>
  <separator name="orbital magnetization" >
   <i type="logical" name="NUCIND"> F  </i>
   <v name="MAGPOS">      0.00000000      0.00000000      0.00000000</v>
   <i type="logical" name="LNICSALL"> T  </i>
   <i type="logical" name="ORBITALMAG"> F  </i>
   <i type="logical" name="LMAGBLOCH"> F  </i>
   <i type="logical" name="LCHIMAG"> F  </i>
   <i type="logical" name="LGAUGE"> T  </i>
   <i type="int" name="MAGATOM">     0</i>
   <v name="MAGDIPOL">      0.00000000      0.00000000      0.00000000</v>
   <v name="AVECCONST">      0.00000000      0.00000000      0.00000000</v>
  </separator>
  <separator name="response functions" >
   <i type="logical" name="LADDER"> F  </i>
   <i type="logical" name="LFXC"> F  </i>
   <i type="logical" name="LHARTREE"> T  </i>
   <i type="int" name="IBSE">     0</i>
   <v type="int" name="KPOINT">    -1     0     0     0</v>
   <i type="logical" name="LTCTE"> F  </i>
   <i type="logical" name="LTETE"> F  </i>
   <i type="logical" name="LTRIPLET"> F  </i>
   <i type="logical" name="LFXCEPS"> F  </i>
   <i type="logical" name="LFXHEG"> F  </i>
   <i type="int" name="NATURALO">     0</i>
   <i type="logical" name="L2ORDER"> F  </i>
   <i type="logical" name="LUSEW"> F  </i>
   <i name="ENCUTGW">     -2.00000000</i>
   <i name="ENCUTGWSOFT">     -2.00000000</i>
   <i name="ENCUTLF">     -1.00000000</i>
   <i type="int" name="LMAXMP2">    -1</i>
   <i name="SCISSOR">      0.00000000</i>
   <i type="int" name="NOMEGA">     0</i>
   <i type="int" name="NOMEGAR">     0</i>
   <i type="int" name="NBANDSGW">    -1</i>
   <i type="int" name="NBANDSO">    -1</i>
   <i type="int" name="NBANDSV">    -1</i>
   <i type="int" name="NELM">   200</i>
   <i type="int" name="NELMHF">     1</i>
   <i type="int" name="DIM">     3</i>
   <i type="int" name="ANTIRES">     0</i>
   <i name="OMEGAMAX">    -30.00000000</i>
   <i name="OMEGAMIN">    -30.00000000</i>
   <i name="OMEGATL">   -200.00000000</i>
   <i type="int" name="OMEGAGRID">     0</i>
   <i name="CSHIFT">     -0.10000000</i>
   <i type="logical" name="SELFENERGY"> F  </i>
   <i type="logical" name="LSPECTRAL"> F  </i>
   <i type="logical" name="LSPECTRALGW"> F  </i>
   <i type="logical" name="LSINGLES"> F  </i>
   <i type="logical" name="LFERMIGW"> F  </i>
   <i type="logical" name="ODDONLYGW"> F  </i>
   <i type="logical" name="EVENONLYGW"> F  </i>
   <i type="int" name="NKREDLFX">     1</i>
   <i type="int" name="NKREDLFY">     1</i>
   <i type="int" name="NKREDLFZ">     1</i>
   <i type="int" name="MAXMEM">  1800</i>
   <i type="int" name="TELESCOPE">     0</i>
   <i type="int" name="TAUPAR">     1</i>
   <i type="int" name="OMEGAPAR">    -1</i>
   <i name="LAMBDA">      1.00000000</i>
  </separator>
  <separator name="External order field" >
   <i name="OFIELD_KAPPA">      0.00000000</i>
   <v name="OFIELD_K">      0.00000000      0.00000000      0.00000000</v>
   <i name="OFIELD_Q6_NEAR">      0.00000000</i>
   <i name="OFIELD_Q6_FAR">      0.00000000</i>
   <i name="OFIELD_A">      0.00000000</i>
  </separator>
 </parameters>
 <atominfo>
  <atoms>       2 </atoms>
  <types>       1 </types>
  <array name="atoms" >
   <dimension dim="1">ion</dimension>
   <field type="string">element</field>
   <field type="int">atomtype</field>
   <set>
    <rc><c>Bi</c><c>   1</c></rc>
    <rc><c>Bi</c><c>   1</c></rc>
   </set>
  </array>
  <array name="atomtypes" >
   <dimension dim="1">type</dimension>
   <field type="int">atomspertype</field>
   <field type="string">element</field>
   <field>mass</field>
   <field>valence</field>
   <field type="string">pseudopotential</field>
   <set>
    <rc><c>   2</c><c>Bi</c><c>    208.98000000</c><c>      5.00000000</c><c>  PAW_PBE Bi 08Apr2002                  </c></rc>
   </set>
  </array>
 </atominfo>
 <structure name="initialpos" >
  <crystal>
   <varray name="basis" >
    <v>       4.38884216       0.00000000       0.00000000 </v>
    <v>       2.19442108       3.80084880       0.00000000 </v>
    <v>       0.00000000       0.00000000      15.00000000 </v>
   </varray>
   <i name="volume">    250.21988210 </i>
   <varray name="rec_basis" >
    <v>       0.22785053      -0.13154956       0.00000000 </v>
    <v>       0.00000000       0.26309913       0.00000000 </v>
    <v>       0.00000000       0.00000000       0.06666667 </v>
   </varray>
  </crystal>
  <varray name="positions" >
   <v>       0.16666667       0.16666667       0.05796187 </v>
   <v>       0.83333333       0.83333333       0.94203813 </v>
  </varray>
  <varray name="selective"  type="logical" >
   <v type="logical" >  F  F  T </v>
   <v type="logical" >  F  F  T </v>
  </varray>
  <nose>
   <v>      -3.00000000       0.00000000       0.00010000       0.00010000 </v>
  </nose>
 </structure>
 <calculation>
  <scstep>
   <time name="dav">    8.62    8.62</time>
   <time name="total">    9.48    9.48</time>
   <energy>
    <i name="alphaZ">      0.95896536 </i>
    <i name="ewald">    111.53607347 </i>
    <i name="hartreedc">   -368.95544704 </i>
    <i name="XCdc">   -220.49624639 </i>
    <i name="pawpsdc">    540.63545300 </i>
    <i name="pawaedc">   -307.16334144 </i>
    <i name="eentropy">     -0.00028852 </i>
    <i name="bandstr">    -12.43015559 </i>
    <i name="atom">    301.62637419 </i>
    <i name="e_fr_energy">     45.71138704 </i>
    <i name="e_wo_entrp">     45.71167556 </i>
    <i name="e_0_energy">     45.71153130 </i>
   </energy>
  </scstep>
  <scstep>
   <time name="dav">   12.04   12.04</time>
   <time name="total">   12.04   12.04</time>
   <energy>
    <i name="e_fr_energy">     -2.06235994 </i>
    <i name="e_wo_entrp">     -2.06235994 </i>
    <i name="e_0_energy">     -2.06235994 </i>
   </energy>
  </scstep>
  <scstep>
   <time name="dav">   10.77   10.77</time>
   <time name="total">   10.77   10.77</time>
   <energy>
    <i name="e_fr_energy">     -8.38548346 </i>
    <i name="e_wo_entrp">     -8.38548346 </i>
    <i name="e_0_energy">     -8.38548346 </i>
   </energy>
  </scstep>
  <scstep>
   <time name="dav">   11.87   11.87</time>
   <time name="total">   11.87   11.88</time>
   <energy>
    <i name="e_fr_energy">     -8.72597677 </i>
    <i name="e_wo_entrp">     -8.72597677 </i>
    <i name="e_0_energy">     -8.72597677 </i>
   </energy>
  </scstep>
  <scstep>
   <time name="dav">   12.27   12.27</time>
   <time name="total">   12.27   12.27</time>
   <energy>
    <i name="e_fr_energy">     -8.72957585 </i>
    <i name="e_wo_entrp">     -8.72957585 </i>
    <i name="e_0_energy">     -8.72957585 </i>
   </energy>
  </scstep>
  <scstep>
   <time name="dav">   12.01   12.02</time>
   <time name="total">   12.01   12.02</time>
   <energy>
    <i name="e_fr_energy">     -8.72968899 </i>
    <i name="e_wo_entrp">     -8.72968899 </i>
    <i name="e_0_energy">     -8.72968899 </i>
   </energy>
  </scstep>
  <scstep>
   <time name="dav">   11.37   11.39</time>
   <time name="total">   11.38   11.39</time>
   <energy>
    <i name="e_fr_energy">     -8.72969054 </i>
    <i name="e_wo_entrp">     -8.72969054 </i>
    <i name="e_0_energy">     -8.72969054 </i>
   </energy>
  </scstep>
  <scstep>
   <time name="dav">    9.88    9.89</time>
   <time name="total">    9.88    9.89</time>
   <energy>
    <i name="alphaZ">      0.95896536 </i>
    <i name="ewald">    111.53607347 </i>
    <i name="hartreedc">   -368.95544704 </i>
    <i name="XCdc">   -220.49624639 </i>
    <i name="pawpsdc">    540.63545300 </i>
    <i name="pawaedc">   -307.16334144 </i>
    <i name="eentropy">      0.00000000 </i>
    <i name="bandstr">    -66.87152176 </i>
    <i name="atom">    301.62637419 </i>
    <i name="e_fr_energy">     -8.72969061 </i>
    <i name="e_wo_entrp">     -8.72969061 </i>
    <i name="e_0_energy">     -8.72969061 </i>
   </energy>
  </scstep>
  <structure>
   <crystal>
    <varray name="basis" >
     <v>       4.38884216       0.00000000       0.00000000 </v>
     <v>       2.19442108       3.80084880       0.00000000 </v>
     <v>       0.00000000       0.00000000      15.00000000 </v>
    </varray>
    <i name="volume">    250.21988210 </i>
    <varray name="rec_basis" >
     <v>       0.22785053      -0.13154956       0.00000000 </v>
     <v>       0.00000000       0.26309913       0.00000000 </v>
     <v>       0.00000000       0.00000000       0.06666667 </v>
    </varray>
   </crystal>
   <varray name="positions" >
    <v>       0.16666667       0.16666667       0.05796187 </v>
    <v>       0.83333333       0.83333333       0.94203813 </v>
   </varray>
  </structure>
  <varray name="forces" >
   <v>      -0.00000956      -0.00000604      -0.00152723 </v>
   <v>       0.00000956       0.00000604       0.00152723 </v>
  </varray>
  <varray name="stress" >
   <v>      -1.14847664       0.00028924       0.00016268 </v>
   <v>       0.00028937      -1.14878536       0.00008255 </v>
   <v>       0.00016220       0.00008278      -1.21917214 </v>
  </varray>
  <energy>
   <i name="e_fr_energy">     -8.72969061 </i>
   <i name="e_wo_entrp">     -8.72969061 </i>
   <i name="e_0_energy">      0.00000000 </i>
  </energy>
  <time name="totalsc">   97.86   97.91</time>
  <eigenvalues>
   <array>
    <dimension dim="1">band</dimension>
    <dimension dim="2">kpoint</dimension>
    <dimension dim="3">spin</dimension>
    <field>eigene</field>
    <field>occ</field>
    <set>
     <set comment="spin 1">
      <set comment="kpoint 1">
       <r>  -13.6315    1.0000 </r>
       <r>  -13.6315    1.0000 </r>
       <r>   -9.8662    1.0000 </r>
       <r>   -9.8662    1.0000 </r>
       <r>   -3.2708    1.0000 </r>
       <r>   -3.2708    1.0000 </r>
       <r>   -1.4332    1.0000 </r>
       <r>   -1.4332    1.0000 </r>
       <r>   -1.4314    1.0000 </r>
       <r>   -1.4314    1.0000 </r>
       <r>   -0.8389    0.0000 </r>
       <r>   -0.8389    0.0000 </r>
       <r>    0.3918    0.0000 </r>
       <r>    0.3919    0.0000 </r>
       <r>    1.6115    0.0000 </r>
       <r>    1.6115    0.0000 </r>
       <r>    2.1209    0.0000 </r>
       <r>    2.1210    0.0000 </r>
      </set>
      <set comment="kpoint 2">
       <r>  -13.5733    1.0000 </r>
       <r>  -13.5733    1.0000 </r>
       <r>   -9.8918    1.0000 </r>
       <r>   -9.8918    1.0000 </r>
       <r>   -3.3847    1.0000 </r>
       <r>   -3.3847    1.0000 </r>
       <r>   -2.0684    1.0000 </r>
       <r>   -2.0684    1.0000 </r>
       <r>   -1.3490    1.0000 </r>
       <r>   -1.3490    1.0000 </r>
       <r>   -0.5608    0.0000 </r>
       <r>   -0.5608    0.0000 </r>
       <r>    0.5662    0.0000 </r>
       <r>    0.5662    0.0000 </r>
       <r>    1.4292    0.0000 </r>
       <r>    1.4292    0.0000 </r>
       <r>    2.2576    0.0000 </r>
       <r>    2.2577    0.0000 </r>
      </set>
      <set comment="kpoint 3">
       <r>  -13.4015    1.0000 </r>
       <r>  -13.4015    1.0000 </r>
       <r>   -9.9811    1.0000 </r>
       <r>   -9.9811    1.0000 </r>
       <r>   -3.7439    1.0000 </r>
       <r>   -3.7439    1.0000 </r>
       <r>   -2.6335    1.0000 </r>
       <r>   -2.6335    1.0000 </r>
       <r>   -1.5734    1.0000 </r>
       <r>   -1.5734    1.0000 </r>
       <r>   -0.5228    0.0000 </r>
       <r>   -0.5228    0.0000 </r>
       <r>    0.9045    0.0000 </r>
       <r>    0.9045    0.0000 </r>
       <r>    1.4752    0.0000 </r>
       <r>    1.4752    0.0000 </r>
       <r>    2.4940    0.0000 </r>
       <r>    2.4941    0.0000 </r>
      </set>
      <set comment="kpoint 4">
       <r>  -13.1272    1.0000 </r>
       <r>  -13.1272    1.0000 </r>
       <r>  -10.1629    1.0000 </r>
       <r>  -10.1629    1.0000 </r>
       <r>   -4.1994    1.0000 </r>
       <r>   -4.1994    1.0000 </r>
       <r>   -3.0573    1.0000 </r>
       <r>   -3.0573    1.0000 </r>
       <r>   -1.8397    1.0000 </r>
       <r>   -1.8397    1.0000 </r>
       <r>   -0.6562    0.0000 </r>
       <r>   -0.6562    0.0000 </r>
       <r>    1.0744    0.0000 </r>
       <r>    1.0744    0.0000 </r>
       <r>    1.7022    0.0000 </r>
       <r>    1.7022    0.0000 </r>
       <r>    2.8171    0.0000 </r>
       <r>    2.8172    0.0000 </r>
      </set>
      <set comment="kpoint 5">
       <r>  -12.7756    1.0000 </r>
       <r>  -12.7756    1.0000 </r>
       <r>  -10.4506    1.0000 </r>
       <r>  -10.4506    1.0000 </r>
       <r>   -4.5226    1.0000 </r>
       <r>   -4.5226    1.0000 </r>
       <r>   -3.4282    1.0000 </r>
       <r>   -3.4282    1.0000 </r>
       <r>   -2.1414    1.0000 </r>
       <r>   -2.1414    1.0000 </r>
       <r>   -0.6032    0.0000 </r>
       <r>   -0.6032    0.0000 </r>
       <r>    1.0187    0.0000 </r>
       <r>    1.0187    0.0000 </r>
       <r>    1.7240    0.0000 </r>
       <r>    1.7240    0.0000 </r>
       <r>    3.1722    0.0000 </r>
       <r>    3.1723    0.0000 </r>
      </set>
      <set comment="kpoint 6">
       <r>  -12.4108    1.0000 </r>
       <r>  -12.4108    1.0000 </r>
       <r>  -10.7895    1.0000 </r>
       <r>  -10.7895    1.0000 </r>
       <r>   -4.6514    1.0000 </r>
       <r>   -4.6514    1.0000 </r>
       <r>   -3.7270    1.0000 </r>
       <r>   -3.7270    1.0000 </r>
       <r>   -2.3783    1.0000 </r>
       <r>   -2.3783    1.0000 </r>
       <r>   -0.4235    0.0000 </r>
       <r>   -0.4235    0.0000 </r>
       <r>    0.8334    0.0000 </r>
       <r>    0.8334    0.0000 </r>
       <r>    1.6639    0.0000 </r>
       <r>    1.6639    0.0000 </r>
       <r>    3.3077    0.0000 </r>
       <r>    3.3077    0.0000 </r>
      </set>
      <set comment="kpoint 7">
       <r>  -12.2204    1.0000 </r>
       <r>  -12.2204    1.0000 </r>
       <r>  -10.9750    1.0000 </r>
       <r>  -10.9750    1.0000 </r>
       <r>   -4.6675    1.0000 </r>
       <r>   -4.6674    1.0000 </r>
       <r>   -3.8534    1.0000 </r>
       <r>   -3.8534    1.0000 </r>
       <r>   -2.4654    1.0000 </r>
       <r>   -2.4654    1.0000 </r>
       <r>   -0.3173    0.0000 </r>
       <r>   -0.3173    0.0000 </r>
       <r>    0.7256    0.0000 </r>
       <r>    0.7256    0.0000 </r>
       <r>    1.6389    0.0000 </r>
       <r>    1.6389    0.0000 </r>
       <r>    3.2795    0.0000 </r>
       <r>    3.2795    0.0000 </r>
      </set>
      <set comment="kpoint 8">
       <r>  -12.4108    1.0000 </r>
       <r>  -12.4108    1.0000 </r>
       <r>  -10.7895    1.0000 </r>
       <r>  -10.7895    1.0000 </r>
       <r>   -4.6514    1.0000 </r>
       <r>   -4.6514    1.0000 </r>
       <r>   -3.7270    1.0000 </r>
       <r>   -3.7270    1.0000 </r>
       <r>   -2.3783    1.0000 </r>
       <r>   -2.3783    1.0000 </r>
       <r>   -0.4235    0.0000 </r>
       <r>   -0.4235    0.0000 </r>
       <r>    0.8334    0.0000 </r>
       <r>    0.8334    0.0000 </r>
       <r>    1.6639    0.0000 </r>
       <r>    1.6639    0.0000 </r>
       <r>    3.3077    0.0000 </r>
       <r>    3.3077    0.0000 </r>
      </set>
      <set comment="kpoint 9">
       <r>  -12.7756    1.0000 </r>
       <r>  -12.7756    1.0000 </r>
       <r>  -10.4506    1.0000 </r>
       <r>  -10.4506    1.0000 </r>
       <r>   -4.5226    1.0000 </r>
       <r>   -4.5226    1.0000 </r>
       <r>   -3.4282    1.0000 </r>
       <r>   -3.4282    1.0000 </r>
       <r>   -2.1414    1.0000 </r>
       <r>   -2.1414    1.0000 </r>
       <r>   -0.6032    0.0000 </r>
       <r>   -0.6032    0.0000 </r>
       <r>    1.0187    0.0000 </r>
       <r>    1.0187    0.0000 </r>
       <r>    1.7240    0.0000 </r>
       <r>    1.7240    0.0000 </r>
       <r>    3.1722    0.0000 </r>
       <r>    3.1833    0.0000 </r>
      </set>
      <set comment="kpoint 10">
       <r>  -13.1272    1.0000 </r>
       <r>  -13.1272    1.0000 </r>
       <r>  -10.1629    1.0000 </r>
       <r>  -10.1629    1.0000 </r>
       <r>   -4.1994    1.0000 </r>
       <r>   -4.1994    1.0000 </r>
       <r>   -3.0573    1.0000 </r>
       <r>   -3.0573    1.0000 </r>
       <r>   -1.8397    1.0000 </r>
       <r>   -1.8397    1.0000 </r>
       <r>   -0.6562    0.0000 </r>
       <r>   -0.6562    0.0000 </r>
       <r>    1.0744    0.0000 </r>
       <r>    1.0744    0.0000 </r>
       <r>    1.7022    0.0000 </r>
       <r>    1.7022    0.0000 </r>
       <r>    2.8171    0.0000 </r>
       <r>    2.8172    0.0000 </r>
      </set>
      <set comment="kpoint 11">
       <r>  -13.4015    1.0000 </r>
       <r>  -13.4015    1.0000 </r>
       <r>   -9.9811    1.0000 </r>
       <r>   -9.9811    1.0000 </r>
       <r>   -3.7439    1.0000 </r>
       <r>   -3.7439    1.0000 </r>
       <r>   -2.6335    1.0000 </r>
       <r>   -2.6335    1.0000 </r>
       <r>   -1.5734    1.0000 </r>
       <r>   -1.5734    1.0000 </r>
       <r>   -0.5228    0.0000 </r>
       <r>   -0.5228    0.0000 </r>
       <r>    0.9045    0.0000 </r>
       <r>    0.9045    0.0000 </r>
       <r>    1.4752    0.0000 </r>
       <r>    1.4752    0.0000 </r>
       <r>    2.4940    0.0000 </r>
       <r>    2.4941    0.0000 </r>
      </set>
      <set comment="kpoint 12">
       <r>  -13.5733    1.0000 </r>
       <r>  -13.5733    1.0000 </r>
       <r>   -9.8918    1.0000 </r>
       <r>   -9.8918    1.0000 </r>
       <r>   -3.3847    1.0000 </r>
       <r>   -3.3847    1.0000 </r>
       <r>   -2.0684    1.0000 </r>
       <r>   -2.0684    1.0000 </r>
       <r>   -1.3490    1.0000 </r>
       <r>   -1.3490    1.0000 </r>
       <r>   -0.5608    0.0000 </r>
       <r>   -0.5608    0.0000 </r>
       <r>    0.5662    0.0000 </r>
       <r>    0.5662    0.0000 </r>
       <r>    1.4292    0.0000 </r>
       <r>    1.4292    0.0000 </r>
       <r>    2.2576    0.0000 </r>
       <r>    2.2577    0.0000 </r>
      </set>
      <set comment="kpoint 13">
       <r>  -13.5733    1.0000 </r>
       <r>  -13.5733    1.0000 </r>
       <r>   -9.8918    1.0000 </r>
       <r>   -9.8918    1.0000 </r>
       <r>   -3.3847    1.0000 </r>
       <r>   -3.3847    1.0000 </r>
       <r>   -2.0684    1.0000 </r>
       <r>   -2.0684    1.0000 </r>
       <r>   -1.3490    1.0000 </r>
       <r>   -1.3490    1.0000 </r>
       <r>   -0.5608    0.0000 </r>
       <r>   -0.5608    0.0000 </r>
       <r>    0.5662    0.0000 </r>
       <r>    0.5662    0.0000 </r>
       <r>    1.4292    0.0000 </r>
       <r>    1.4292    0.0000 </r>
       <r>    2.2576    0.0000 </r>
       <r>    2.2577    0.0000 </r>
      </set>
      <set comment="kpoint 14">
       <r>  -13.5733    1.0000 </r>
       <r>  -13.5733    1.0000 </r>
       <r>   -9.8918    1.0000 </r>
       <r>   -9.8918    1.0000 </r>
       <r>   -3.3847    1.0000 </r>
       <r>   -3.3847    1.0000 </r>
       <r>   -2.0684    1.0000 </r>
       <r>   -2.0684    1.0000 </r>
       <r>   -1.3490    1.0000 </r>
       <r>   -1.3490    1.0000 </r>
       <r>   -0.5608    0.0000 </r>
       <r>   -0.5608    0.0000 </r>
       <r>    0.5662    0.0000 </r>
       <r>    0.5662    0.0000 </r>
       <r>    1.4292    0.0000 </r>
       <r>    1.4292    0.0000 </r>
       <r>    2.2576    0.0000 </r>
       <r>    2.2577    0.0000 </r>
      </set>
      <set comment="kpoint 15">
       <r>  -13.4582    1.0000 </r>
       <r>  -13.4582    1.0000 </r>
       <r>   -9.9493    1.0000 </r>
       <r>   -9.9493    1.0000 </r>
       <r>   -3.6187    1.0000 </r>
       <r>   -3.6187    1.0000 </r>
       <r>   -2.5056    1.0000 </r>
       <r>   -2.5056    1.0000 </r>
       <r>   -1.5853    1.0000 </r>
       <r>   -1.5853    1.0000 </r>
       <r>   -0.3267    0.0000 </r>
       <r>   -0.3267    0.0000 </r>
       <r>    0.6934    0.0000 </r>
       <r>    0.6934    0.0000 </r>
       <r>    1.4482    0.0000 </r>
       <r>    1.4482    0.0000 </r>
       <r>    2.4240    0.0000 </r>
       <r>    2.4241    0.0000 </r>
      </set>
      <set comment="kpoint 16">
       <r>  -13.2346    1.0000 </r>
       <r>  -13.2346    1.0000 </r>
       <r>  -10.0854    1.0000 </r>
       <r>  -10.0854    1.0000 </r>
       <r>   -4.0071    1.0000 </r>
       <r>   -4.0071    1.0000 </r>
       <r>   -2.9807    1.0000 </r>
       <r>   -2.9807    1.0000 </r>
       <r>   -1.8668    1.0000 </r>
       <r>   -1.8668    1.0000 </r>
       <r>   -0.2961    0.0000 </r>
       <r>   -0.2961    0.0000 </r>
       <r>    0.8452    0.0000 </r>
       <r>    0.8452    0.0000 </r>
       <r>    1.6315    0.0000 </r>
       <r>    1.6315    0.0000 </r>
       <r>    2.6984    0.0000 </r>
       <r>    2.6985    0.0000 </r>
      </set>
      <set comment="kpoint 17">
       <r>  -12.9186    1.0000 </r>
       <r>  -12.9186    1.0000 </r>
       <r>  -10.3239    1.0000 </r>
       <r>  -10.3239    1.0000 </r>
       <r>   -4.3674    1.0000 </r>
       <r>   -4.3674    1.0000 </r>
       <r>   -3.3988    1.0000 </r>
       <r>   -3.3988    1.0000 </r>
       <r>   -2.1325    1.0000 </r>
       <r>   -2.1325    1.0000 </r>
       <r>   -0.3513    0.0000 </r>
       <r>   -0.3513    0.0000 </r>
       <r>    0.9912    0.0000 </r>
       <r>    0.9912    0.0000 </r>
       <r>    1.6438    0.0000 </r>
       <r>    1.6438    0.0000 </r>
       <r>    3.0644    0.0000 </r>
       <r>    3.0646    0.0000 </r>
      </set>
      <set comment="kpoint 18">
       <r>  -12.5483    1.0000 </r>
       <r>  -12.5483    1.0000 </r>
       <r>  -10.6513    1.0000 </r>
       <r>  -10.6513    1.0000 </r>
       <r>   -4.5828    1.0000 </r>
       <r>   -4.5828    1.0000 </r>
       <r>   -3.7073    1.0000 </r>
       <r>   -3.7073    1.0000 </r>
       <r>   -2.4132    1.0000 </r>
       <r>   -2.4132    1.0000 </r>
       <r>   -0.2501    0.0000 </r>
       <r>   -0.2501    0.0000 </r>
       <r>    0.9336    0.0000 </r>
       <r>    0.9336    0.0000 </r>
       <r>    1.5345    0.0000 </r>
       <r>    1.5345    0.0000 </r>
       <r>    3.3909    0.0000 </r>
       <r>    3.3910    0.0000 </r>
      </set>
      <set comment="kpoint 19">
       <r>  -12.2320    1.0000 </r>
       <r>  -12.2320    1.0000 </r>
       <r>  -10.9541    1.0000 </r>
       <r>  -10.9541    1.0000 </r>
       <r>   -4.6594    1.0000 </r>
       <r>   -4.6594    1.0000 </r>
       <r>   -3.8746    1.0000 </r>
       <r>   -3.8746    1.0000 </r>
       <r>   -2.6047    1.0000 </r>
       <r>   -2.6047    1.0000 </r>
       <r>   -0.0840    0.0000 </r>
       <r>   -0.0840    0.0000 </r>
       <r>    0.7630    0.0000 </r>
       <r>    0.7630    0.0000 </r>
       <r>    1.4930    0.0000 </r>
       <r>    1.4930    0.0000 </r>
       <r>    3.3792    0.0000 </r>
       <r>    3.3792    0.0000 </r>
      </set>
      <set comment="kpoint 20">
       <r>  -12.2320    1.0000 </r>
       <r>  -12.2320    1.0000 </r>
       <r>  -10.9541    1.0000 </r>
       <r>  -10.9541    1.0000 </r>
       <r>   -4.6594    1.0000 </r>
       <r>   -4.6594    1.0000 </r>
       <r>   -3.8746    1.0000 </r>
       <r>   -3.8746    1.0000 </r>
       <r>   -2.6047    1.0000 </r>
       <r>   -2.6047    1.0000 </r>
       <r>   -0.0840    0.0000 </r>
       <r>   -0.0840    0.0000 </r>
       <r>    0.7630    0.0000 </r>
       <r>    0.7630    0.0000 </r>
       <r>    1.4930    0.0000 </r>
       <r>    1.4930    0.0000 </r>
       <r>    3.3792    0.0000 </r>
       <r>    3.3792    0.0000 </r>
      </set>
      <set comment="kpoint 21">
       <r>  -12.5483    1.0000 </r>
       <r>  -12.5483    1.0000 </r>
       <r>  -10.6513    1.0000 </r>
       <r>  -10.6513    1.0000 </r>
       <r>   -4.5828    1.0000 </r>
       <r>   -4.5828    1.0000 </r>
       <r>   -3.7073    1.0000 </r>
       <r>   -3.7073    1.0000 </r>
       <r>   -2.4132    1.0000 </r>
       <r>   -2.4132    1.0000 </r>
       <r>   -0.2501    0.0000 </r>
       <r>   -0.2501    0.0000 </r>
       <r>    0.9336    0.0000 </r>
       <r>    0.9336    0.0000 </r>
       <r>    1.5345    0.0000 </r>
       <r>    1.5345    0.0000 </r>
       <r>    3.3909    0.0000 </r>
       <r>    3.3911    0.0000 </r>
      </set>
      <set comment="kpoint 22">
       <r>  -12.9186    1.0000 </r>
       <r>  -12.9186    1.0000 </r>
       <r>  -10.3239    1.0000 </r>
       <r>  -10.3239    1.0000 </r>
       <r>   -4.3674    1.0000 </r>
       <r>   -4.3674    1.0000 </r>
       <r>   -3.3988    1.0000 </r>
       <r>   -3.3988    1.0000 </r>
       <r>   -2.1325    1.0000 </r>
       <r>   -2.1325    1.0000 </r>
       <r>   -0.3513    0.0000 </r>
       <r>   -0.3513    0.0000 </r>
       <r>    0.9912    0.0000 </r>
       <r>    0.9912    0.0000 </r>
       <r>    1.6438    0.0000 </r>
       <r>    1.6438    0.0000 </r>
       <r>    3.0644    0.0000 </r>
       <r>    3.0646    0.0000 </r>
      </set>
      <set comment="kpoint 23">
       <r>  -13.2346    1.0000 </r>
       <r>  -13.2346    1.0000 </r>
       <r>  -10.0854    1.0000 </r>
       <r>  -10.0854    1.0000 </r>
       <r>   -4.0071    1.0000 </r>
       <r>   -4.0071    1.0000 </r>
       <r>   -2.9807    1.0000 </r>
       <r>   -2.9807    1.0000 </r>
       <r>   -1.8668    1.0000 </r>
       <r>   -1.8668    1.0000 </r>
       <r>   -0.2961    0.0000 </r>
       <r>   -0.2961    0.0000 </r>
       <r>    0.8452    0.0000 </r>
       <r>    0.8452    0.0000 </r>
       <r>    1.6315    0.0000 </r>
       <r>    1.6315    0.0000 </r>
       <r>    2.6984    0.0000 </r>
       <r>    2.6985    0.0000 </r>
      </set>
      <set comment="kpoint 24">
       <r>  -13.4582    1.0000 </r>
       <r>  -13.4582    1.0000 </r>
       <r>   -9.9493    1.0000 </r>
       <r>   -9.9493    1.0000 </r>
       <r>   -3.6187    1.0000 </r>
       <r>   -3.6187    1.0000 </r>
       <r>   -2.5056    1.0000 </r>
       <r>   -2.5056    1.0000 </r>
       <r>   -1.5853    1.0000 </r>
       <r>   -1.5853    1.0000 </r>
       <r>   -0.3267    0.0000 </r>
       <r>   -0.3267    0.0000 </r>
       <r>    0.6934    0.0000 </r>
       <r>    0.6934    0.0000 </r>
       <r>    1.4482    0.0000 </r>
       <r>    1.4482    0.0000 </r>
       <r>    2.4240    0.0000 </r>
       <r>    2.4241    0.0000 </r>
      </set>
      <set comment="kpoint 25">
       <r>  -13.4015    1.0000 </r>
       <r>  -13.4015    1.0000 </r>
       <r>   -9.9811    1.0000 </r>
       <r>   -9.9811    1.0000 </r>
       <r>   -3.7439    1.0000 </r>
       <r>   -3.7439    1.0000 </r>
       <r>   -2.6335    1.0000 </r>
       <r>   -2.6335    1.0000 </r>
       <r>   -1.5734    1.0000 </r>
       <r>   -1.5734    1.0000 </r>
       <r>   -0.5228    0.0000 </r>
       <r>   -0.5228    0.0000 </r>
       <r>    0.9045    0.0000 </r>
       <r>    0.9045    0.0000 </r>
       <r>    1.4752    0.0000 </r>
       <r>    1.4752    0.0000 </r>
       <r>    2.4940    0.0000 </r>
       <r>    2.4941    0.0000 </r>
      </set>
      <set comment="kpoint 26">
       <r>  -13.4582    1.0000 </r>
       <r>  -13.4582    1.0000 </r>
       <r>   -9.9493    1.0000 </r>
       <r>   -9.9493    1.0000 </r>
       <r>   -3.6187    1.0000 </r>
       <r>   -3.6187    1.0000 </r>
       <r>   -2.5056    1.0000 </r>
       <r>   -2.5056    1.0000 </r>
       <r>   -1.5853    1.0000 </r>
       <r>   -1.5853    1.0000 </r>
       <r>   -0.3267    0.0000 </r>
       <r>   -0.3267    0.0000 </r>
       <r>    0.6934    0.0000 </r>
       <r>    0.6934    0.0000 </r>
       <r>    1.4482    0.0000 </r>
       <r>    1.4482    0.0000 </r>
       <r>    2.4240    0.0000 </r>
       <r>    2.4241    0.0000 </r>
      </set>
      <set comment="kpoint 27">
       <r>  -13.4015    1.0000 </r>
       <r>  -13.4015    1.0000 </r>
       <r>   -9.9811    1.0000 </r>
       <r>   -9.9811    1.0000 </r>
       <r>   -3.7439    1.0000 </r>
       <r>   -3.7439    1.0000 </r>
       <r>   -2.6335    1.0000 </r>
       <r>   -2.6335    1.0000 </r>
       <r>   -1.5734    1.0000 </r>
       <r>   -1.5734    1.0000 </r>
       <r>   -0.5228    0.0000 </r>
       <r>   -0.5228    0.0000 </r>
       <r>    0.9045    0.0000 </r>
       <r>    0.9045    0.0000 </r>
       <r>    1.4752    0.0000 </r>
       <r>    1.4752    0.0000 </r>
       <r>    2.4940    0.0000 </r>
       <r>    2.4941    0.0000 </r>
      </set>
      <set comment="kpoint 28">
       <r>  -13.2346    1.0000 </r>
       <r>  -13.2346    1.0000 </r>
       <r>  -10.0854    1.0000 </r>
       <r>  -10.0854    1.0000 </r>
       <r>   -4.0071    1.0000 </r>
       <r>   -4.0071    1.0000 </r>
       <r>   -2.9807    1.0000 </r>
       <r>   -2.9807    1.0000 </r>
       <r>   -1.8668    1.0000 </r>
       <r>   -1.8668    1.0000 </r>
       <r>   -0.2961    0.0000 </r>
       <r>   -0.2961    0.0000 </r>
       <r>    0.8452    0.0000 </r>
       <r>    0.8452    0.0000 </r>
       <r>    1.6315    0.0000 </r>
       <r>    1.6315    0.0000 </r>
       <r>    2.6984    0.0000 </r>
       <r>    2.6985    0.0000 </r>
      </set>
      <set comment="kpoint 29">
       <r>  -12.9674    1.0000 </r>
       <r>  -12.9674    1.0000 </r>
       <r>  -10.2805    1.0000 </r>
       <r>  -10.2805    1.0000 </r>
       <r>   -4.2491    1.0000 </r>
       <r>   -4.2491    1.0000 </r>
       <r>   -3.4860    1.0000 </r>
       <r>   -3.4860    1.0000 </r>
       <r>   -2.1678    1.0000 </r>
       <r>   -2.1678    1.0000 </r>
       <r>    0.0327    0.0000 </r>
       <r>    0.0327    0.0000 </r>
       <r>    0.7203    0.0000 </r>
       <r>    0.7203    0.0000 </r>
       <r>    1.6718    0.0000 </r>
       <r>    1.6718    0.0000 </r>
       <r>    3.0253    0.0000 </r>
       <r>    3.0254    0.0000 </r>
      </set>
      <set comment="kpoint 30">
       <r>  -12.6224    1.0000 </r>
       <r>  -12.6224    1.0000 </r>
       <r>  -10.5716    1.0000 </r>
       <r>  -10.5716    1.0000 </r>
       <r>   -4.4389    1.0000 </r>
       <r>   -4.4389    1.0000 </r>
       <r>   -3.8780    1.0000 </r>
       <r>   -3.8780    1.0000 </r>
       <r>   -2.4574    1.0000 </r>
       <r>   -2.4574    1.0000 </r>
       <r>    0.1406    0.0000 </r>
       <r>    0.1406    0.0000 </r>
       <r>    0.7207    0.0000 </r>
       <r>    0.7207    0.0000 </r>
       <r>    1.6203    0.0000 </r>
       <r>    1.6203    0.0000 </r>
       <r>    3.4408    0.0000 </r>
       <r>    3.4416    0.0000 </r>
      </set>
      <set comment="kpoint 31">
       <r>  -12.2541    1.0000 </r>
       <r>  -12.2541    1.0000 </r>
       <r>  -10.9130    1.0000 </r>
       <r>  -10.9130    1.0000 </r>
       <r>   -4.6194    1.0000 </r>
       <r>   -4.6194    1.0000 </r>
       <r>   -3.9866    1.0000 </r>
       <r>   -3.9866    1.0000 </r>
       <r>   -2.7477    1.0000 </r>
       <r>   -2.7477    1.0000 </r>
       <r>    0.1521    0.0000 </r>
       <r>    0.1521    0.0000 </r>
       <r>    0.8061    0.0000 </r>
       <r>    0.8061    0.0000 </r>
       <r>    1.4962    0.0000 </r>
       <r>    1.4962    0.0000 </r>
       <r>    3.6883    0.0000 </r>
       <r>    3.6883    0.0000 </r>
      </set>
      <set comment="kpoint 32">
       <r>  -12.0479    1.0000 </r>
       <r>  -12.0479    1.0000 </r>
       <r>  -11.1121    1.0000 </r>
       <r>  -11.1121    1.0000 </r>
       <r>   -4.6998    1.0000 </r>
       <r>   -4.6998    1.0000 </r>
       <r>   -3.9717    1.0000 </r>
       <r>   -3.9717    1.0000 </r>
       <r>   -2.8862    1.0000 </r>
       <r>   -2.8862    1.0000 </r>
       <r>    0.1471    0.0000 </r>
       <r>    0.1471    0.0000 </r>
       <r>    0.8842    0.0000 </r>
       <r>    0.8842    0.0000 </r>
       <r>    1.4095    0.0000 </r>
       <r>    1.4095    0.0000 </r>
       <r>    3.6494    0.0000 </r>
       <r>    3.6494    0.0000 </r>
      </set>
      <set comment="kpoint 33">
       <r>  -12.2541    1.0000 </r>
       <r>  -12.2541    1.0000 </r>
       <r>  -10.9130    1.0000 </r>
       <r>  -10.9130    1.0000 </r>
       <r>   -4.6194    1.0000 </r>
       <r>   -4.6194    1.0000 </r>
       <r>   -3.9866    1.0000 </r>
       <r>   -3.9866    1.0000 </r>
       <r>   -2.7477    1.0000 </r>
       <r>   -2.7477    1.0000 </r>
       <r>    0.1521    0.0000 </r>
       <r>    0.1521    0.0000 </r>
       <r>    0.8061    0.0000 </r>
       <r>    0.8061    0.0000 </r>
       <r>    1.4962    0.0000 </r>
       <r>    1.4962    0.0000 </r>
       <r>    3.6883    0.0000 </r>
       <r>    3.6883    0.0000 </r>
      </set>
      <set comment="kpoint 34">
       <r>  -12.6224    1.0000 </r>
       <r>  -12.6224    1.0000 </r>
       <r>  -10.5716    1.0000 </r>
       <r>  -10.5716    1.0000 </r>
       <r>   -4.4389    1.0000 </r>
       <r>   -4.4389    1.0000 </r>
       <r>   -3.8780    1.0000 </r>
       <r>   -3.8780    1.0000 </r>
       <r>   -2.4574    1.0000 </r>
       <r>   -2.4574    1.0000 </r>
       <r>    0.1406    0.0000 </r>
       <r>    0.1406    0.0000 </r>
       <r>    0.7207    0.0000 </r>
       <r>    0.7207    0.0000 </r>
       <r>    1.6203    0.0000 </r>
       <r>    1.6203    0.0000 </r>
       <r>    3.4408    0.0000 </r>
       <r>    3.4462    0.0000 </r>
      </set>
      <set comment="kpoint 35">
       <r>  -12.9674    1.0000 </r>
       <r>  -12.9674    1.0000 </r>
       <r>  -10.2805    1.0000 </r>
       <r>  -10.2805    1.0000 </r>
       <r>   -4.2491    1.0000 </r>
       <r>   -4.2491    1.0000 </r>
       <r>   -3.4860    1.0000 </r>
       <r>   -3.4860    1.0000 </r>
       <r>   -2.1678    1.0000 </r>
       <r>   -2.1678    1.0000 </r>
       <r>    0.0327    0.0000 </r>
       <r>    0.0327    0.0000 </r>
       <r>    0.7203    0.0000 </r>
       <r>    0.7203    0.0000 </r>
       <r>    1.6718    0.0000 </r>
       <r>    1.6718    0.0000 </r>
       <r>    3.0253    0.0000 </r>
       <r>    3.0254    0.0000 </r>
      </set>
      <set comment="kpoint 36">
       <r>  -13.2346    1.0000 </r>
       <r>  -13.2346    1.0000 </r>
       <r>  -10.0854    1.0000 </r>
       <r>  -10.0854    1.0000 </r>
       <r>   -4.0071    1.0000 </r>
       <r>   -4.0071    1.0000 </r>
       <r>   -2.9807    1.0000 </r>
       <r>   -2.9807    1.0000 </r>
       <r>   -1.8668    1.0000 </r>
       <r>   -1.8668    1.0000 </r>
       <r>   -0.2961    0.0000 </r>
       <r>   -0.2961    0.0000 </r>
       <r>    0.8452    0.0000 </r>
       <r>    0.8452    0.0000 </r>
       <r>    1.6315    0.0000 </r>
       <r>    1.6315    0.0000 </r>
       <r>    2.6984    0.0000 </r>
       <r>    2.6985    0.0000 </r>
      </set>
      <set comment="kpoint 37">
       <r>  -13.1272    1.0000 </r>
       <r>  -13.1272    1.0000 </r>
       <r>  -10.1629    1.0000 </r>
       <r>  -10.1629    1.0000 </r>
       <r>   -4.1994    1.0000 </r>
       <r>   -4.1994    1.0000 </r>
       <r>   -3.0573    1.0000 </r>
       <r>   -3.0573    1.0000 </r>
       <r>   -1.8397    1.0000 </r>
       <r>   -1.8397    1.0000 </r>
       <r>   -0.6562    0.0000 </r>
       <r>   -0.6562    0.0000 </r>
       <r>    1.0744    0.0000 </r>
       <r>    1.0744    0.0000 </r>
       <r>    1.7022    0.0000 </r>
       <r>    1.7022    0.0000 </r>
       <r>    2.8171    0.0000 </r>
       <r>    2.8172    0.0000 </r>
      </set>
      <set comment="kpoint 38">
       <r>  -13.2346    1.0000 </r>
       <r>  -13.2346    1.0000 </r>
       <r>  -10.0854    1.0000 </r>
       <r>  -10.0854    1.0000 </r>
       <r>   -4.0071    1.0000 </r>
       <r>   -4.0071    1.0000 </r>
       <r>   -2.9807    1.0000 </r>
       <r>   -2.9807    1.0000 </r>
       <r>   -1.8668    1.0000 </r>
       <r>   -1.8668    1.0000 </r>
       <r>   -0.2961    0.0000 </r>
       <r>   -0.2961    0.0000 </r>
       <r>    0.8452    0.0000 </r>
       <r>    0.8452    0.0000 </r>
       <r>    1.6315    0.0000 </r>
       <r>    1.6315    0.0000 </r>
       <r>    2.6984    0.0000 </r>
       <r>    2.6985    0.0000 </r>
      </set>
      <set comment="kpoint 39">
       <r>  -13.2346    1.0000 </r>
       <r>  -13.2346    1.0000 </r>
       <r>  -10.0854    1.0000 </r>
       <r>  -10.0854    1.0000 </r>
       <r>   -4.0071    1.0000 </r>
       <r>   -4.0071    1.0000 </r>
       <r>   -2.9807    1.0000 </r>
       <r>   -2.9807    1.0000 </r>
       <r>   -1.8668    1.0000 </r>
       <r>   -1.8668    1.0000 </r>
       <r>   -0.2961    0.0000 </r>
       <r>   -0.2961    0.0000 </r>
       <r>    0.8452    0.0000 </r>
       <r>    0.8452    0.0000 </r>
       <r>    1.6315    0.0000 </r>
       <r>    1.6315    0.0000 </r>
       <r>    2.6984    0.0000 </r>
       <r>    2.6985    0.0000 </r>
      </set>
      <set comment="kpoint 40">
       <r>  -13.1272    1.0000 </r>
       <r>  -13.1272    1.0000 </r>
       <r>  -10.1629    1.0000 </r>
       <r>  -10.1629    1.0000 </r>
       <r>   -4.1994    1.0000 </r>
       <r>   -4.1994    1.0000 </r>
       <r>   -3.0573    1.0000 </r>
       <r>   -3.0573    1.0000 </r>
       <r>   -1.8397    1.0000 </r>
       <r>   -1.8397    1.0000 </r>
       <r>   -0.6562    0.0000 </r>
       <r>   -0.6562    0.0000 </r>
       <r>    1.0744    0.0000 </r>
       <r>    1.0744    0.0000 </r>
       <r>    1.7022    0.0000 </r>
       <r>    1.7022    0.0000 </r>
       <r>    2.8171    0.0000 </r>
       <r>    2.8173    0.0000 </r>
      </set>
      <set comment="kpoint 41">
       <r>  -12.9186    1.0000 </r>
       <r>  -12.9186    1.0000 </r>
       <r>  -10.3239    1.0000 </r>
       <r>  -10.3239    1.0000 </r>
       <r>   -4.3674    1.0000 </r>
       <r>   -4.3674    1.0000 </r>
       <r>   -3.3988    1.0000 </r>
       <r>   -3.3988    1.0000 </r>
       <r>   -2.1325    1.0000 </r>
       <r>   -2.1325    1.0000 </r>
       <r>   -0.3513    0.0000 </r>
       <r>   -0.3513    0.0000 </r>
       <r>    0.9912    0.0000 </r>
       <r>    0.9912    0.0000 </r>
       <r>    1.6438    0.0000 </r>
       <r>    1.6438    0.0000 </r>
       <r>    3.0644    0.0000 </r>
       <r>    3.0645    0.0000 </r>
      </set>
      <set comment="kpoint 42">
       <r>  -12.6224    1.0000 </r>
       <r>  -12.6224    1.0000 </r>
       <r>  -10.5716    1.0000 </r>
       <r>  -10.5716    1.0000 </r>
       <r>   -4.4389    1.0000 </r>
       <r>   -4.4389    1.0000 </r>
       <r>   -3.8780    1.0000 </r>
       <r>   -3.8780    1.0000 </r>
       <r>   -2.4574    1.0000 </r>
       <r>   -2.4574    1.0000 </r>
       <r>    0.1406    0.0000 </r>
       <r>    0.1406    0.0000 </r>
       <r>    0.7207    0.0000 </r>
       <r>    0.7207    0.0000 </r>
       <r>    1.6203    0.0000 </r>
       <r>    1.6203    0.0000 </r>
       <r>    3.4409    0.0000 </r>
       <r>    3.4420    0.0000 </r>
      </set>
      <set comment="kpoint 43">
       <r>  -12.2647    1.0000 </r>
       <r>  -12.2647    1.0000 </r>
       <r>  -10.8928    1.0000 </r>
       <r>  -10.8928    1.0000 </r>
       <r>   -4.5780    1.0000 </r>
       <r>   -4.5780    1.0000 </r>
       <r>   -4.0849    1.0000 </r>
       <r>   -4.0849    1.0000 </r>
       <r>   -2.7698    1.0000 </r>
       <r>   -2.7698    1.0000 </r>
       <r>    0.1772    0.0000 </r>
       <r>    0.1772    0.0000 </r>
       <r>    0.7520    0.0000 </r>
       <r>    0.7520    0.0000 </r>
       <r>    1.7073    0.0000 </r>
       <r>    1.7073    0.0000 </r>
       <r>    3.9073    0.0000 </r>
       <r>    3.9096    0.0000 </r>
      </set>
      <set comment="kpoint 44">
       <r>  -11.9169    1.0000 </r>
       <r>  -11.9169    1.0000 </r>
       <r>  -11.2219    1.0000 </r>
       <r>  -11.2219    1.0000 </r>
       <r>   -4.7709    1.0000 </r>
       <r>   -4.7709    1.0000 </r>
       <r>   -3.9864    1.0000 </r>
       <r>   -3.9864    1.0000 </r>
       <r>   -3.0244    1.0000 </r>
       <r>   -3.0244    1.0000 </r>
       <r>   -0.0267    0.0000 </r>
       <r>   -0.0267    0.0000 </r>
       <r>    1.0690    0.0000 </r>
       <r>    1.0690    0.0000 </r>
       <r>    1.6439    0.0000 </r>
       <r>    1.6439    0.0000 </r>
       <r>    4.1858    0.0000 </r>
       <r>    4.1858    0.0000 </r>
      </set>
      <set comment="kpoint 45">
       <r>  -11.9169    1.0000 </r>
       <r>  -11.9169    1.0000 </r>
       <r>  -11.2219    1.0000 </r>
       <r>  -11.2219    1.0000 </r>
       <r>   -4.7709    1.0000 </r>
       <r>   -4.7709    1.0000 </r>
       <r>   -3.9864    1.0000 </r>
       <r>   -3.9864    1.0000 </r>
       <r>   -3.0244    1.0000 </r>
       <r>   -3.0244    1.0000 </r>
       <r>   -0.0267    0.0000 </r>
       <r>   -0.0267    0.0000 </r>
       <r>    1.0690    0.0000 </r>
       <r>    1.0690    0.0000 </r>
       <r>    1.6439    0.0000 </r>
       <r>    1.6439    0.0000 </r>
       <r>    4.1858    0.0000 </r>
       <r>    4.1858    0.0000 </r>
      </set>
      <set comment="kpoint 46">
       <r>  -12.2647    1.0000 </r>
       <r>  -12.2647    1.0000 </r>
       <r>  -10.8928    1.0000 </r>
       <r>  -10.8928    1.0000 </r>
       <r>   -4.5780    1.0000 </r>
       <r>   -4.5780    1.0000 </r>
       <r>   -4.0849    1.0000 </r>
       <r>   -4.0849    1.0000 </r>
       <r>   -2.7698    1.0000 </r>
       <r>   -2.7698    1.0000 </r>
       <r>    0.1772    0.0000 </r>
       <r>    0.1772    0.0000 </r>
       <r>    0.7520    0.0000 </r>
       <r>    0.7520    0.0000 </r>
       <r>    1.7073    0.0000 </r>
       <r>    1.7073    0.0000 </r>
       <r>    3.9071    0.0000 </r>
       <r>    3.9073    0.0000 </r>
      </set>
      <set comment="kpoint 47">
       <r>  -12.6224    1.0000 </r>
       <r>  -12.6224    1.0000 </r>
       <r>  -10.5716    1.0000 </r>
       <r>  -10.5716    1.0000 </r>
       <r>   -4.4389    1.0000 </r>
       <r>   -4.4389    1.0000 </r>
       <r>   -3.8780    1.0000 </r>
       <r>   -3.8780    1.0000 </r>
       <r>   -2.4574    1.0000 </r>
       <r>   -2.4574    1.0000 </r>
       <r>    0.1406    0.0000 </r>
       <r>    0.1406    0.0000 </r>
       <r>    0.7207    0.0000 </r>
       <r>    0.7207    0.0000 </r>
       <r>    1.6203    0.0000 </r>
       <r>    1.6203    0.0000 </r>
       <r>    3.4408    0.0000 </r>
       <r>    3.4422    0.0000 </r>
      </set>
      <set comment="kpoint 48">
       <r>  -12.9186    1.0000 </r>
       <r>  -12.9186    1.0000 </r>
       <r>  -10.3239    1.0000 </r>
       <r>  -10.3239    1.0000 </r>
       <r>   -4.3674    1.0000 </r>
       <r>   -4.3674    1.0000 </r>
       <r>   -3.3988    1.0000 </r>
       <r>   -3.3988    1.0000 </r>
       <r>   -2.1325    1.0000 </r>
       <r>   -2.1325    1.0000 </r>
       <r>   -0.3513    0.0000 </r>
       <r>   -0.3513    0.0000 </r>
       <r>    0.9912    0.0000 </r>
       <r>    0.9912    0.0000 </r>
       <r>    1.6438    0.0000 </r>
       <r>    1.6438    0.0000 </r>
       <r>    3.0645    0.0000 </r>
       <r>    3.0646    0.0000 </r>
      </set>
      <set comment="kpoint 49">
       <r>  -12.7756    1.0000 </r>
       <r>  -12.7756    1.0000 </r>
       <r>  -10.4506    1.0000 </r>
       <r>  -10.4506    1.0000 </r>
       <r>   -4.5226    1.0000 </r>
       <r>   -4.5226    1.0000 </r>
       <r>   -3.4282    1.0000 </r>
       <r>   -3.4282    1.0000 </r>
       <r>   -2.1414    1.0000 </r>
       <r>   -2.1414    1.0000 </r>
       <r>   -0.6032    0.0000 </r>
       <r>   -0.6032    0.0000 </r>
       <r>    1.0187    0.0000 </r>
       <r>    1.0187    0.0000 </r>
       <r>    1.7240    0.0000 </r>
       <r>    1.7240    0.0000 </r>
       <r>    3.1722    0.0000 </r>
       <r>    3.1724    0.0000 </r>
      </set>
      <set comment="kpoint 50">
       <r>  -12.9186    1.0000 </r>
       <r>  -12.9186    1.0000 </r>
       <r>  -10.3239    1.0000 </r>
       <r>  -10.3239    1.0000 </r>
       <r>   -4.3674    1.0000 </r>
       <r>   -4.3674    1.0000 </r>
       <r>   -3.3988    1.0000 </r>
       <r>   -3.3988    1.0000 </r>
       <r>   -2.1325    1.0000 </r>
       <r>   -2.1325    1.0000 </r>
       <r>   -0.3513    0.0000 </r>
       <r>   -0.3513    0.0000 </r>
       <r>    0.9912    0.0000 </r>
       <r>    0.9912    0.0000 </r>
       <r>    1.6438    0.0000 </r>
       <r>    1.6438    0.0000 </r>
       <r>    3.0644    0.0000 </r>
       <r>    3.0657    0.0000 </r>
      </set>
      <set comment="kpoint 51">
       <r>  -12.9674    1.0000 </r>
       <r>  -12.9674    1.0000 </r>
       <r>  -10.2805    1.0000 </r>
       <r>  -10.2805    1.0000 </r>
       <r>   -4.2491    1.0000 </r>
       <r>   -4.2491    1.0000 </r>
       <r>   -3.4860    1.0000 </r>
       <r>   -3.4860    1.0000 </r>
       <r>   -2.1678    1.0000 </r>
       <r>   -2.1678    1.0000 </r>
       <r>    0.0327    0.0000 </r>
       <r>    0.0327    0.0000 </r>
       <r>    0.7202    0.0000 </r>
       <r>    0.7203    0.0000 </r>
       <r>    1.6718    0.0000 </r>
       <r>    1.6718    0.0000 </r>
       <r>    3.0253    0.0000 </r>
       <r>    3.0256    0.0000 </r>
      </set>
      <set comment="kpoint 52">
       <r>  -12.9186    1.0000 </r>
       <r>  -12.9186    1.0000 </r>
       <r>  -10.3239    1.0000 </r>
       <r>  -10.3239    1.0000 </r>
       <r>   -4.3674    1.0000 </r>
       <r>   -4.3674    1.0000 </r>
       <r>   -3.3988    1.0000 </r>
       <r>   -3.3988    1.0000 </r>
       <r>   -2.1325    1.0000 </r>
       <r>   -2.1325    1.0000 </r>
       <r>   -0.3513    0.0000 </r>
       <r>   -0.3513    0.0000 </r>
       <r>    0.9912    0.0000 </r>
       <r>    0.9912    0.0000 </r>
       <r>    1.6438    0.0000 </r>
       <r>    1.6438    0.0000 </r>
       <r>    3.0645    0.0000 </r>
       <r>    3.0664    0.0000 </r>
      </set>
      <set comment="kpoint 53">
       <r>  -12.7756    1.0000 </r>
       <r>  -12.7756    1.0000 </r>
       <r>  -10.4506    1.0000 </r>
       <r>  -10.4506    1.0000 </r>
       <r>   -4.5226    1.0000 </r>
       <r>   -4.5226    1.0000 </r>
       <r>   -3.4282    1.0000 </r>
       <r>   -3.4282    1.0000 </r>
       <r>   -2.1414    1.0000 </r>
       <r>   -2.1414    1.0000 </r>
       <r>   -0.6032    0.0000 </r>
       <r>   -0.6032    0.0000 </r>
       <r>    1.0187    0.0000 </r>
       <r>    1.0187    0.0000 </r>
       <r>    1.7240    0.0000 </r>
       <r>    1.7240    0.0000 </r>
       <r>    3.1722    0.0000 </r>
       <r>    3.1728    0.0000 </r>
      </set>
      <set comment="kpoint 54">
       <r>  -12.5483    1.0000 </r>
       <r>  -12.5483    1.0000 </r>
       <r>  -10.6513    1.0000 </r>
       <r>  -10.6513    1.0000 </r>
       <r>   -4.5828    1.0000 </r>
       <r>   -4.5828    1.0000 </r>
       <r>   -3.7073    1.0000 </r>
       <r>   -3.7073    1.0000 </r>
       <r>   -2.4132    1.0000 </r>
       <r>   -2.4132    1.0000 </r>
       <r>   -0.2501    0.0000 </r>
       <r>   -0.2501    0.0000 </r>
       <r>    0.9336    0.0000 </r>
       <r>    0.9336    0.0000 </r>
       <r>    1.5345    0.0000 </r>
       <r>    1.5345    0.0000 </r>
       <r>    3.3909    0.0000 </r>
       <r>    3.3913    0.0000 </r>
      </set>
      <set comment="kpoint 55">
       <r>  -12.2541    1.0000 </r>
       <r>  -12.2541    1.0000 </r>
       <r>  -10.9130    1.0000 </r>
       <r>  -10.9130    1.0000 </r>
       <r>   -4.6194    1.0000 </r>
       <r>   -4.6194    1.0000 </r>
       <r>   -3.9866    1.0000 </r>
       <r>   -3.9866    1.0000 </r>
       <r>   -2.7477    1.0000 </r>
       <r>   -2.7477    1.0000 </r>
       <r>    0.1521    0.0000 </r>
       <r>    0.1521    0.0000 </r>
       <r>    0.8061    0.0000 </r>
       <r>    0.8061    0.0000 </r>
       <r>    1.4962    0.0000 </r>
       <r>    1.4962    0.0000 </r>
       <r>    3.6883    0.0000 </r>
       <r>    3.6883    0.0000 </r>
      </set>
      <set comment="kpoint 56">
       <r>  -11.9169    1.0000 </r>
       <r>  -11.9169    1.0000 </r>
       <r>  -11.2219    1.0000 </r>
       <r>  -11.2219    1.0000 </r>
       <r>   -4.7709    1.0000 </r>
       <r>   -4.7709    1.0000 </r>
       <r>   -3.9864    1.0000 </r>
       <r>   -3.9864    1.0000 </r>
       <r>   -3.0244    1.0000 </r>
       <r>   -3.0244    1.0000 </r>
       <r>   -0.0267    0.0000 </r>
       <r>   -0.0267    0.0000 </r>
       <r>    1.0690    0.0000 </r>
       <r>    1.0690    0.0000 </r>
       <r>    1.6439    0.0000 </r>
       <r>    1.6439    0.0000 </r>
       <r>    4.1858    0.0000 </r>
       <r>    4.1858    0.0000 </r>
      </set>
      <set comment="kpoint 57">
       <r>  -11.5840    1.0000 </r>
       <r>  -11.5840    1.0000 </r>
       <r>  -11.5433    1.0000 </r>
       <r>  -11.5433    1.0000 </r>
       <r>   -4.8600    1.0000 </r>
       <r>   -4.8600    1.0000 </r>
       <r>   -3.9126    1.0000 </r>
       <r>   -3.9126    1.0000 </r>
       <r>   -3.1530    1.0000 </r>
       <r>   -3.1530    1.0000 </r>
       <r>   -0.1627    0.0000 </r>
       <r>   -0.1627    0.0000 </r>
       <r>    1.2347    0.0000 </r>
       <r>    1.2347    0.0000 </r>
       <r>    1.6980    0.0000 </r>
       <r>    1.6980    0.0000 </r>
       <r>    4.4490    0.0000 </r>
       <r>    4.4490    0.0000 </r>
      </set>
      <set comment="kpoint 58">
       <r>  -11.9169    1.0000 </r>
       <r>  -11.9169    1.0000 </r>
       <r>  -11.2219    1.0000 </r>
       <r>  -11.2219    1.0000 </r>
       <r>   -4.7709    1.0000 </r>
       <r>   -4.7709    1.0000 </r>
       <r>   -3.9864    1.0000 </r>
       <r>   -3.9864    1.0000 </r>
       <r>   -3.0244    1.0000 </r>
       <r>   -3.0244    1.0000 </r>
       <r>   -0.0267    0.0000 </r>
       <r>   -0.0267    0.0000 </r>
       <r>    1.0690    0.0000 </r>
       <r>    1.0690    0.0000 </r>
       <r>    1.6439    0.0000 </r>
       <r>    1.6439    0.0000 </r>
       <r>    4.1858    0.0000 </r>
       <r>    4.1858    0.0000 </r>
      </set>
      <set comment="kpoint 59">
       <r>  -12.2541    1.0000 </r>
       <r>  -12.2541    1.0000 </r>
       <r>  -10.9130    1.0000 </r>
       <r>  -10.9130    1.0000 </r>
       <r>   -4.6194    1.0000 </r>
       <r>   -4.6194    1.0000 </r>
       <r>   -3.9866    1.0000 </r>
       <r>   -3.9866    1.0000 </r>
       <r>   -2.7477    1.0000 </r>
       <r>   -2.7477    1.0000 </r>
       <r>    0.1521    0.0000 </r>
       <r>    0.1521    0.0000 </r>
       <r>    0.8061    0.0000 </r>
       <r>    0.8061    0.0000 </r>
       <r>    1.4962    0.0000 </r>
       <r>    1.4962    0.0000 </r>
       <r>    3.6883    0.0000 </r>
       <r>    3.6883    0.0000 </r>
      </set>
      <set comment="kpoint 60">
       <r>  -12.5483    1.0000 </r>
       <r>  -12.5483    1.0000 </r>
       <r>  -10.6513    1.0000 </r>
       <r>  -10.6513    1.0000 </r>
       <r>   -4.5828    1.0000 </r>
       <r>   -4.5828    1.0000 </r>
       <r>   -3.7073    1.0000 </r>
       <r>   -3.7073    1.0000 </r>
       <r>   -2.4132    1.0000 </r>
       <r>   -2.4132    1.0000 </r>
       <r>   -0.2501    0.0000 </r>
       <r>   -0.2501    0.0000 </r>
       <r>    0.9336    0.0000 </r>
       <r>    0.9336    0.0000 </r>
       <r>    1.5345    0.0000 </r>
       <r>    1.5345    0.0000 </r>
       <r>    3.3909    0.0000 </r>
       <r>    3.3909    0.0000 </r>
      </set>
      <set comment="kpoint 61">
       <r>  -12.4108    1.0000 </r>
       <r>  -12.4108    1.0000 </r>
       <r>  -10.7895    1.0000 </r>
       <r>  -10.7895    1.0000 </r>
       <r>   -4.6514    1.0000 </r>
       <r>   -4.6514    1.0000 </r>
       <r>   -3.7270    1.0000 </r>
       <r>   -3.7270    1.0000 </r>
       <r>   -2.3783    1.0000 </r>
       <r>   -2.3783    1.0000 </r>
       <r>   -0.4235    0.0000 </r>
       <r>   -0.4235    0.0000 </r>
       <r>    0.8334    0.0000 </r>
       <r>    0.8334    0.0000 </r>
       <r>    1.6639    0.0000 </r>
       <r>    1.6639    0.0000 </r>
       <r>    3.3077    0.0000 </r>
       <r>    3.3077    0.0000 </r>
      </set>
      <set comment="kpoint 62">
       <r>  -12.5483    1.0000 </r>
       <r>  -12.5483    1.0000 </r>
       <r>  -10.6513    1.0000 </r>
       <r>  -10.6513    1.0000 </r>
       <r>   -4.5828    1.0000 </r>
       <r>   -4.5828    1.0000 </r>
       <r>   -3.7073    1.0000 </r>
       <r>   -3.7073    1.0000 </r>
       <r>   -2.4132    1.0000 </r>
       <r>   -2.4132    1.0000 </r>
       <r>   -0.2501    0.0000 </r>
       <r>   -0.2501    0.0000 </r>
       <r>    0.9336    0.0000 </r>
       <r>    0.9336    0.0000 </r>
       <r>    1.5345    0.0000 </r>
       <r>    1.5345    0.0000 </r>
       <r>    3.3909    0.0000 </r>
       <r>    3.3911    0.0000 </r>
      </set>
      <set comment="kpoint 63">
       <r>  -12.6224    1.0000 </r>
       <r>  -12.6224    1.0000 </r>
       <r>  -10.5716    1.0000 </r>
       <r>  -10.5716    1.0000 </r>
       <r>   -4.4389    1.0000 </r>
       <r>   -4.4389    1.0000 </r>
       <r>   -3.8780    1.0000 </r>
       <r>   -3.8780    1.0000 </r>
       <r>   -2.4574    1.0000 </r>
       <r>   -2.4574    1.0000 </r>
       <r>    0.1406    0.0000 </r>
       <r>    0.1406    0.0000 </r>
       <r>    0.7207    0.0000 </r>
       <r>    0.7207    0.0000 </r>
       <r>    1.6203    0.0000 </r>
       <r>    1.6203    0.0000 </r>
       <r>    3.4409    0.0000 </r>
       <r>    3.4419    0.0000 </r>
      </set>
      <set comment="kpoint 64">
       <r>  -12.6224    1.0000 </r>
       <r>  -12.6224    1.0000 </r>
       <r>  -10.5716    1.0000 </r>
       <r>  -10.5716    1.0000 </r>
       <r>   -4.4389    1.0000 </r>
       <r>   -4.4389    1.0000 </r>
       <r>   -3.8780    1.0000 </r>
       <r>   -3.8780    1.0000 </r>
       <r>   -2.4574    1.0000 </r>
       <r>   -2.4574    1.0000 </r>
       <r>    0.1406    0.0000 </r>
       <r>    0.1406    0.0000 </r>
       <r>    0.7207    0.0000 </r>
       <r>    0.7207    0.0000 </r>
       <r>    1.6203    0.0000 </r>
       <r>    1.6203    0.0000 </r>
       <r>    3.4413    0.0000 </r>
       <r>    3.4419    0.0000 </r>
      </set>
      <set comment="kpoint 65">
       <r>  -12.5483    1.0000 </r>
       <r>  -12.5483    1.0000 </r>
       <r>  -10.6513    1.0000 </r>
       <r>  -10.6513    1.0000 </r>
       <r>   -4.5828    1.0000 </r>
       <r>   -4.5828    1.0000 </r>
       <r>   -3.7073    1.0000 </r>
       <r>   -3.7073    1.0000 </r>
       <r>   -2.4132    1.0000 </r>
       <r>   -2.4132    1.0000 </r>
       <r>   -0.2501    0.0000 </r>
       <r>   -0.2501    0.0000 </r>
       <r>    0.9336    0.0000 </r>
       <r>    0.9336    0.0000 </r>
       <r>    1.5345    0.0000 </r>
       <r>    1.5345    0.0000 </r>
       <r>    3.3909    0.0000 </r>
       <r>    3.3911    0.0000 </r>
      </set>
      <set comment="kpoint 66">
       <r>  -12.4108    1.0000 </r>
       <r>  -12.4108    1.0000 </r>
       <r>  -10.7895    1.0000 </r>
       <r>  -10.7895    1.0000 </r>
       <r>   -4.6514    1.0000 </r>
       <r>   -4.6514    1.0000 </r>
       <r>   -3.7270    1.0000 </r>
       <r>   -3.7270    1.0000 </r>
       <r>   -2.3783    1.0000 </r>
       <r>   -2.3783    1.0000 </r>
       <r>   -0.4235    0.0000 </r>
       <r>   -0.4235    0.0000 </r>
       <r>    0.8334    0.0000 </r>
       <r>    0.8334    0.0000 </r>
       <r>    1.6639    0.0000 </r>
       <r>    1.6639    0.0000 </r>
       <r>    3.3077    0.0000 </r>
       <r>    3.3077    0.0000 </r>
      </set>
      <set comment="kpoint 67">
       <r>  -12.2320    1.0000 </r>
       <r>  -12.2320    1.0000 </r>
       <r>  -10.9541    1.0000 </r>
       <r>  -10.9541    1.0000 </r>
       <r>   -4.6594    1.0000 </r>
       <r>   -4.6594    1.0000 </r>
       <r>   -3.8746    1.0000 </r>
       <r>   -3.8746    1.0000 </r>
       <r>   -2.6047    1.0000 </r>
       <r>   -2.6047    1.0000 </r>
       <r>   -0.0840    0.0000 </r>
       <r>   -0.0840    0.0000 </r>
       <r>    0.7630    0.0000 </r>
       <r>    0.7630    0.0000 </r>
       <r>    1.4930    0.0000 </r>
       <r>    1.4930    0.0000 </r>
       <r>    3.3792    0.0000 </r>
       <r>    3.3792    0.0000 </r>
      </set>
      <set comment="kpoint 68">
       <r>  -12.0479    1.0000 </r>
       <r>  -12.0479    1.0000 </r>
       <r>  -11.1121    1.0000 </r>
       <r>  -11.1121    1.0000 </r>
       <r>   -4.6998    1.0000 </r>
       <r>   -4.6998    1.0000 </r>
       <r>   -3.9717    1.0000 </r>
       <r>   -3.9717    1.0000 </r>
       <r>   -2.8862    1.0000 </r>
       <r>   -2.8862    1.0000 </r>
       <r>    0.1470    0.0000 </r>
       <r>    0.1470    0.0000 </r>
       <r>    0.8842    0.0000 </r>
       <r>    0.8842    0.0000 </r>
       <r>    1.4095    0.0000 </r>
       <r>    1.4095    0.0000 </r>
       <r>    3.6494    0.0000 </r>
       <r>    3.6494    0.0000 </r>
      </set>
      <set comment="kpoint 69">
       <r>  -11.9169    1.0000 </r>
       <r>  -11.9169    1.0000 </r>
       <r>  -11.2219    1.0000 </r>
       <r>  -11.2219    1.0000 </r>
       <r>   -4.7709    1.0000 </r>
       <r>   -4.7709    1.0000 </r>
       <r>   -3.9864    1.0000 </r>
       <r>   -3.9864    1.0000 </r>
       <r>   -3.0244    1.0000 </r>
       <r>   -3.0244    1.0000 </r>
       <r>   -0.0267    0.0000 </r>
       <r>   -0.0267    0.0000 </r>
       <r>    1.0690    0.0000 </r>
       <r>    1.0690    0.0000 </r>
       <r>    1.6439    0.0000 </r>
       <r>    1.6439    0.0000 </r>
       <r>    4.1858    0.0000 </r>
       <r>    4.1858    0.0000 </r>
      </set>
      <set comment="kpoint 70">
       <r>  -11.9169    1.0000 </r>
       <r>  -11.9169    1.0000 </r>
       <r>  -11.2219    1.0000 </r>
       <r>  -11.2219    1.0000 </r>
       <r>   -4.7709    1.0000 </r>
       <r>   -4.7709    1.0000 </r>
       <r>   -3.9864    1.0000 </r>
       <r>   -3.9864    1.0000 </r>
       <r>   -3.0244    1.0000 </r>
       <r>   -3.0244    1.0000 </r>
       <r>   -0.0267    0.0000 </r>
       <r>   -0.0267    0.0000 </r>
       <r>    1.0690    0.0000 </r>
       <r>    1.0690    0.0000 </r>
       <r>    1.6439    0.0000 </r>
       <r>    1.6439    0.0000 </r>
       <r>    4.1858    0.0000 </r>
       <r>    4.1858    0.0000 </r>
      </set>
      <set comment="kpoint 71">
       <r>  -12.0479    1.0000 </r>
       <r>  -12.0479    1.0000 </r>
       <r>  -11.1121    1.0000 </r>
       <r>  -11.1121    1.0000 </r>
       <r>   -4.6998    1.0000 </r>
       <r>   -4.6998    1.0000 </r>
       <r>   -3.9717    1.0000 </r>
       <r>   -3.9717    1.0000 </r>
       <r>   -2.8862    1.0000 </r>
       <r>   -2.8862    1.0000 </r>
       <r>    0.1471    0.0000 </r>
       <r>    0.1471    0.0000 </r>
       <r>    0.8842    0.0000 </r>
       <r>    0.8842    0.0000 </r>
       <r>    1.4095    0.0000 </r>
       <r>    1.4095    0.0000 </r>
       <r>    3.6494    0.0000 </r>
       <r>    3.6494    0.0000 </r>
      </set>
      <set comment="kpoint 72">
       <r>  -12.2320    1.0000 </r>
       <r>  -12.2320    1.0000 </r>
       <r>  -10.9541    1.0000 </r>
       <r>  -10.9541    1.0000 </r>
       <r>   -4.6594    1.0000 </r>
       <r>   -4.6594    1.0000 </r>
       <r>   -3.8746    1.0000 </r>
       <r>   -3.8746    1.0000 </r>
       <r>   -2.6047    1.0000 </r>
       <r>   -2.6047    1.0000 </r>
       <r>   -0.0840    0.0000 </r>
       <r>   -0.0840    0.0000 </r>
       <r>    0.7630    0.0000 </r>
       <r>    0.7630    0.0000 </r>
       <r>    1.4930    0.0000 </r>
       <r>    1.4930    0.0000 </r>
       <r>    3.3792    0.0000 </r>
       <r>    3.3792    0.0000 </r>
      </set>
      <set comment="kpoint 73">
       <r>  -12.2204    1.0000 </r>
       <r>  -12.2204    1.0000 </r>
       <r>  -10.9750    1.0000 </r>
       <r>  -10.9750    1.0000 </r>
       <r>   -4.6675    1.0000 </r>
       <r>   -4.6674    1.0000 </r>
       <r>   -3.8534    1.0000 </r>
       <r>   -3.8534    1.0000 </r>
       <r>   -2.4654    1.0000 </r>
       <r>   -2.4654    1.0000 </r>
       <r>   -0.3173    0.0000 </r>
       <r>   -0.3173    0.0000 </r>
       <r>    0.7256    0.0000 </r>
       <r>    0.7256    0.0000 </r>
       <r>    1.6389    0.0000 </r>
       <r>    1.6389    0.0000 </r>
       <r>    3.2795    0.0000 </r>
       <r>    3.2795    0.0000 </r>
      </set>
      <set comment="kpoint 74">
       <r>  -12.2320    1.0000 </r>
       <r>  -12.2320    1.0000 </r>
       <r>  -10.9541    1.0000 </r>
       <r>  -10.9541    1.0000 </r>
       <r>   -4.6594    1.0000 </r>
       <r>   -4.6594    1.0000 </r>
       <r>   -3.8746    1.0000 </r>
       <r>   -3.8746    1.0000 </r>
       <r>   -2.6047    1.0000 </r>
       <r>   -2.6047    1.0000 </r>
       <r>   -0.0840    0.0000 </r>
       <r>   -0.0840    0.0000 </r>
       <r>    0.7630    0.0000 </r>
       <r>    0.7630    0.0000 </r>
       <r>    1.4930    0.0000 </r>
       <r>    1.4930    0.0000 </r>
       <r>    3.3792    0.0000 </r>
       <r>    3.3792    0.0000 </r>
      </set>
      <set comment="kpoint 75">
       <r>  -12.2541    1.0000 </r>
       <r>  -12.2541    1.0000 </r>
       <r>  -10.9130    1.0000 </r>
       <r>  -10.9130    1.0000 </r>
       <r>   -4.6194    1.0000 </r>
       <r>   -4.6194    1.0000 </r>
       <r>   -3.9866    1.0000 </r>
       <r>   -3.9866    1.0000 </r>
       <r>   -2.7477    1.0000 </r>
       <r>   -2.7477    1.0000 </r>
       <r>    0.1521    0.0000 </r>
       <r>    0.1521    0.0000 </r>
       <r>    0.8061    0.0000 </r>
       <r>    0.8061    0.0000 </r>
       <r>    1.4962    0.0000 </r>
       <r>    1.4962    0.0000 </r>
       <r>    3.6883    0.0000 </r>
       <r>    3.6883    0.0000 </r>
      </set>
      <set comment="kpoint 76">
       <r>  -12.2647    1.0000 </r>
       <r>  -12.2647    1.0000 </r>
       <r>  -10.8928    1.0000 </r>
       <r>  -10.8928    1.0000 </r>
       <r>   -4.5780    1.0000 </r>
       <r>   -4.5780    1.0000 </r>
       <r>   -4.0849    1.0000 </r>
       <r>   -4.0849    1.0000 </r>
       <r>   -2.7698    1.0000 </r>
       <r>   -2.7698    1.0000 </r>
       <r>    0.1772    0.0000 </r>
       <r>    0.1772    0.0000 </r>
       <r>    0.7520    0.0000 </r>
       <r>    0.7520    0.0000 </r>
       <r>    1.7073    0.0000 </r>
       <r>    1.7073    0.0000 </r>
       <r>    3.9070    0.0000 </r>
       <r>    3.9078    0.0000 </r>
      </set>
      <set comment="kpoint 77">
       <r>  -12.2541    1.0000 </r>
       <r>  -12.2541    1.0000 </r>
       <r>  -10.9130    1.0000 </r>
       <r>  -10.9130    1.0000 </r>
       <r>   -4.6194    1.0000 </r>
       <r>   -4.6194    1.0000 </r>
       <r>   -3.9866    1.0000 </r>
       <r>   -3.9866    1.0000 </r>
       <r>   -2.7477    1.0000 </r>
       <r>   -2.7477    1.0000 </r>
       <r>    0.1521    0.0000 </r>
       <r>    0.1521    0.0000 </r>
       <r>    0.8061    0.0000 </r>
       <r>    0.8061    0.0000 </r>
       <r>    1.4962    0.0000 </r>
       <r>    1.4962    0.0000 </r>
       <r>    3.6883    0.0000 </r>
       <r>    3.6883    0.0000 </r>
      </set>
      <set comment="kpoint 78">
       <r>  -12.2320    1.0000 </r>
       <r>  -12.2320    1.0000 </r>
       <r>  -10.9541    1.0000 </r>
       <r>  -10.9541    1.0000 </r>
       <r>   -4.6594    1.0000 </r>
       <r>   -4.6594    1.0000 </r>
       <r>   -3.8746    1.0000 </r>
       <r>   -3.8746    1.0000 </r>
       <r>   -2.6047    1.0000 </r>
       <r>   -2.6047    1.0000 </r>
       <r>   -0.0840    0.0000 </r>
       <r>   -0.0840    0.0000 </r>
       <r>    0.7630    0.0000 </r>
       <r>    0.7630    0.0000 </r>
       <r>    1.4930    0.0000 </r>
       <r>    1.4930    0.0000 </r>
       <r>    3.3792    0.0000 </r>
       <r>    3.3792    0.0000 </r>
      </set>
      <set comment="kpoint 79">
       <r>  -12.2204    1.0000 </r>
       <r>  -12.2204    1.0000 </r>
       <r>  -10.9750    1.0000 </r>
       <r>  -10.9750    1.0000 </r>
       <r>   -4.6675    1.0000 </r>
       <r>   -4.6675    1.0000 </r>
       <r>   -3.8534    1.0000 </r>
       <r>   -3.8534    1.0000 </r>
       <r>   -2.4654    1.0000 </r>
       <r>   -2.4654    1.0000 </r>
       <r>   -0.3173    0.0000 </r>
       <r>   -0.3173    0.0000 </r>
       <r>    0.7256    0.0000 </r>
       <r>    0.7256    0.0000 </r>
       <r>    1.6389    0.0000 </r>
       <r>    1.6389    0.0000 </r>
       <r>    3.2795    0.0000 </r>
       <r>    3.2795    0.0000 </r>
      </set>
      <set comment="kpoint 80">
       <r>  -12.2320    1.0000 </r>
       <r>  -12.2320    1.0000 </r>
       <r>  -10.9541    1.0000 </r>
       <r>  -10.9541    1.0000 </r>
       <r>   -4.6594    1.0000 </r>
       <r>   -4.6594    1.0000 </r>
       <r>   -3.8746    1.0000 </r>
       <r>   -3.8746    1.0000 </r>
       <r>   -2.6047    1.0000 </r>
       <r>   -2.6047    1.0000 </r>
       <r>   -0.0840    0.0000 </r>
       <r>   -0.0840    0.0000 </r>
       <r>    0.7630    0.0000 </r>
       <r>    0.7630    0.0000 </r>
       <r>    1.4930    0.0000 </r>
       <r>    1.4930    0.0000 </r>
       <r>    3.3792    0.0000 </r>
       <r>    3.3792    0.0000 </r>
      </set>
      <set comment="kpoint 81">
       <r>  -12.2541    1.0000 </r>
       <r>  -12.2541    1.0000 </r>
       <r>  -10.9130    1.0000 </r>
       <r>  -10.9130    1.0000 </r>
       <r>   -4.6194    1.0000 </r>
       <r>   -4.6194    1.0000 </r>
       <r>   -3.9866    1.0000 </r>
       <r>   -3.9866    1.0000 </r>
       <r>   -2.7477    1.0000 </r>
       <r>   -2.7477    1.0000 </r>
       <r>    0.1521    0.0000 </r>
       <r>    0.1521    0.0000 </r>
       <r>    0.8061    0.0000 </r>
       <r>    0.8061    0.0000 </r>
       <r>    1.4962    0.0000 </r>
       <r>    1.4962    0.0000 </r>
       <r>    3.6883    0.0000 </r>
       <r>    3.6883    0.0000 </r>
      </set>
      <set comment="kpoint 82">
       <r>  -12.2647    1.0000 </r>
       <r>  -12.2647    1.0000 </r>
       <r>  -10.8928    1.0000 </r>
       <r>  -10.8928    1.0000 </r>
       <r>   -4.5780    1.0000 </r>
       <r>   -4.5780    1.0000 </r>
       <r>   -4.0849    1.0000 </r>
       <r>   -4.0849    1.0000 </r>
       <r>   -2.7698    1.0000 </r>
       <r>   -2.7698    1.0000 </r>
       <r>    0.1772    0.0000 </r>
       <r>    0.1772    0.0000 </r>
       <r>    0.7520    0.0000 </r>
       <r>    0.7520    0.0000 </r>
       <r>    1.7073    0.0000 </r>
       <r>    1.7073    0.0000 </r>
       <r>    3.9071    0.0000 </r>
       <r>    3.9083    0.0000 </r>
      </set>
      <set comment="kpoint 83">
       <r>  -12.2541    1.0000 </r>
       <r>  -12.2541    1.0000 </r>
       <r>  -10.9130    1.0000 </r>
       <r>  -10.9130    1.0000 </r>
       <r>   -4.6194    1.0000 </r>
       <r>   -4.6194    1.0000 </r>
       <r>   -3.9866    1.0000 </r>
       <r>   -3.9866    1.0000 </r>
       <r>   -2.7477    1.0000 </r>
       <r>   -2.7477    1.0000 </r>
       <r>    0.1521    0.0000 </r>
       <r>    0.1521    0.0000 </r>
       <r>    0.8061    0.0000 </r>
       <r>    0.8061    0.0000 </r>
       <r>    1.4962    0.0000 </r>
       <r>    1.4962    0.0000 </r>
       <r>    3.6883    0.0000 </r>
       <r>    3.6883    0.0000 </r>
      </set>
      <set comment="kpoint 84">
       <r>  -12.2320    1.0000 </r>
       <r>  -12.2320    1.0000 </r>
       <r>  -10.9541    1.0000 </r>
       <r>  -10.9541    1.0000 </r>
       <r>   -4.6594    1.0000 </r>
       <r>   -4.6594    1.0000 </r>
       <r>   -3.8746    1.0000 </r>
       <r>   -3.8746    1.0000 </r>
       <r>   -2.6047    1.0000 </r>
       <r>   -2.6047    1.0000 </r>
       <r>   -0.0840    0.0000 </r>
       <r>   -0.0840    0.0000 </r>
       <r>    0.7630    0.0000 </r>
       <r>    0.7630    0.0000 </r>
       <r>    1.4930    0.0000 </r>
       <r>    1.4930    0.0000 </r>
       <r>    3.3792    0.0000 </r>
       <r>    3.3792    0.0000 </r>
      </set>
      <set comment="kpoint 85">
       <r>  -12.4108    1.0000 </r>
       <r>  -12.4108    1.0000 </r>
       <r>  -10.7895    1.0000 </r>
       <r>  -10.7895    1.0000 </r>
       <r>   -4.6514    1.0000 </r>
       <r>   -4.6514    1.0000 </r>
       <r>   -3.7270    1.0000 </r>
       <r>   -3.7270    1.0000 </r>
       <r>   -2.3783    1.0000 </r>
       <r>   -2.3783    1.0000 </r>
       <r>   -0.4235    0.0000 </r>
       <r>   -0.4235    0.0000 </r>
       <r>    0.8334    0.0000 </r>
       <r>    0.8334    0.0000 </r>
       <r>    1.6639    0.0000 </r>
       <r>    1.6639    0.0000 </r>
       <r>    3.3077    0.0000 </r>
       <r>    3.3077    0.0000 </r>
      </set>
      <set comment="kpoint 86">
       <r>  -12.2320    1.0000 </r>
       <r>  -12.2320    1.0000 </r>
       <r>  -10.9541    1.0000 </r>
       <r>  -10.9541    1.0000 </r>
       <r>   -4.6594    1.0000 </r>
       <r>   -4.6594    1.0000 </r>
       <r>   -3.8746    1.0000 </r>
       <r>   -3.8746    1.0000 </r>
       <r>   -2.6047    1.0000 </r>
       <r>   -2.6047    1.0000 </r>
       <r>   -0.0840    0.0000 </r>
       <r>   -0.0840    0.0000 </r>
       <r>    0.7630    0.0000 </r>
       <r>    0.7630    0.0000 </r>
       <r>    1.4930    0.0000 </r>
       <r>    1.4930    0.0000 </r>
       <r>    3.3792    0.0000 </r>
       <r>    3.3792    0.0000 </r>
      </set>
      <set comment="kpoint 87">
       <r>  -12.0479    1.0000 </r>
       <r>  -12.0479    1.0000 </r>
       <r>  -11.1121    1.0000 </r>
       <r>  -11.1121    1.0000 </r>
       <r>   -4.6998    1.0000 </r>
       <r>   -4.6998    1.0000 </r>
       <r>   -3.9717    1.0000 </r>
       <r>   -3.9717    1.0000 </r>
       <r>   -2.8862    1.0000 </r>
       <r>   -2.8862    1.0000 </r>
       <r>    0.1471    0.0000 </r>
       <r>    0.1471    0.0000 </r>
       <r>    0.8842    0.0000 </r>
       <r>    0.8842    0.0000 </r>
       <r>    1.4095    0.0000 </r>
       <r>    1.4095    0.0000 </r>
       <r>    3.6494    0.0000 </r>
       <r>    3.6494    0.0000 </r>
      </set>
      <set comment="kpoint 88">
       <r>  -11.9169    1.0000 </r>
       <r>  -11.9169    1.0000 </r>
       <r>  -11.2219    1.0000 </r>
       <r>  -11.2219    1.0000 </r>
       <r>   -4.7709    1.0000 </r>
       <r>   -4.7709    1.0000 </r>
       <r>   -3.9864    1.0000 </r>
       <r>   -3.9864    1.0000 </r>
       <r>   -3.0244    1.0000 </r>
       <r>   -3.0244    1.0000 </r>
       <r>   -0.0267    0.0000 </r>
       <r>   -0.0267    0.0000 </r>
       <r>    1.0690    0.0000 </r>
       <r>    1.0690    0.0000 </r>
       <r>    1.6439    0.0000 </r>
       <r>    1.6439    0.0000 </r>
       <r>    4.1858    0.0000 </r>
       <r>    4.1858    0.0000 </r>
      </set>
      <set comment="kpoint 89">
       <r>  -11.9169    1.0000 </r>
       <r>  -11.9169    1.0000 </r>
       <r>  -11.2219    1.0000 </r>
       <r>  -11.2219    1.0000 </r>
       <r>   -4.7709    1.0000 </r>
       <r>   -4.7709    1.0000 </r>
       <r>   -3.9864    1.0000 </r>
       <r>   -3.9864    1.0000 </r>
       <r>   -3.0244    1.0000 </r>
       <r>   -3.0244    1.0000 </r>
       <r>   -0.0267    0.0000 </r>
       <r>   -0.0267    0.0000 </r>
       <r>    1.0690    0.0000 </r>
       <r>    1.0690    0.0000 </r>
       <r>    1.6439    0.0000 </r>
       <r>    1.6439    0.0000 </r>
       <r>    4.1858    0.0000 </r>
       <r>    4.1858    0.0000 </r>
      </set>
      <set comment="kpoint 90">
       <r>  -12.0479    1.0000 </r>
       <r>  -12.0479    1.0000 </r>
       <r>  -11.1121    1.0000 </r>
       <r>  -11.1121    1.0000 </r>
       <r>   -4.6998    1.0000 </r>
       <r>   -4.6998    1.0000 </r>
       <r>   -3.9717    1.0000 </r>
       <r>   -3.9717    1.0000 </r>
       <r>   -2.8862    1.0000 </r>
       <r>   -2.8862    1.0000 </r>
       <r>    0.1470    0.0000 </r>
       <r>    0.1470    0.0000 </r>
       <r>    0.8842    0.0000 </r>
       <r>    0.8842    0.0000 </r>
       <r>    1.4095    0.0000 </r>
       <r>    1.4095    0.0000 </r>
       <r>    3.6494    0.0000 </r>
       <r>    3.6494    0.0000 </r>
      </set>
      <set comment="kpoint 91">
       <r>  -12.2320    1.0000 </r>
       <r>  -12.2320    1.0000 </r>
       <r>  -10.9541    1.0000 </r>
       <r>  -10.9541    1.0000 </r>
       <r>   -4.6594    1.0000 </r>
       <r>   -4.6594    1.0000 </r>
       <r>   -3.8746    1.0000 </r>
       <r>   -3.8746    1.0000 </r>
       <r>   -2.6047    1.0000 </r>
       <r>   -2.6047    1.0000 </r>
       <r>   -0.0840    0.0000 </r>
       <r>   -0.0840    0.0000 </r>
       <r>    0.7630    0.0000 </r>
       <r>    0.7630    0.0000 </r>
       <r>    1.4930    0.0000 </r>
       <r>    1.4930    0.0000 </r>
       <r>    3.3792    0.0000 </r>
       <r>    3.3792    0.0000 </r>
      </set>
      <set comment="kpoint 92">
       <r>  -12.4108    1.0000 </r>
       <r>  -12.4108    1.0000 </r>
       <r>  -10.7895    1.0000 </r>
       <r>  -10.7895    1.0000 </r>
       <r>   -4.6514    1.0000 </r>
       <r>   -4.6514    1.0000 </r>
       <r>   -3.7270    1.0000 </r>
       <r>   -3.7270    1.0000 </r>
       <r>   -2.3783    1.0000 </r>
       <r>   -2.3783    1.0000 </r>
       <r>   -0.4235    0.0000 </r>
       <r>   -0.4235    0.0000 </r>
       <r>    0.8334    0.0000 </r>
       <r>    0.8334    0.0000 </r>
       <r>    1.6639    0.0000 </r>
       <r>    1.6639    0.0000 </r>
       <r>    3.3077    0.0000 </r>
       <r>    3.3077    0.0000 </r>
      </set>
      <set comment="kpoint 93">
       <r>  -12.5483    1.0000 </r>
       <r>  -12.5483    1.0000 </r>
       <r>  -10.6513    1.0000 </r>
       <r>  -10.6513    1.0000 </r>
       <r>   -4.5828    1.0000 </r>
       <r>   -4.5828    1.0000 </r>
       <r>   -3.7073    1.0000 </r>
       <r>   -3.7073    1.0000 </r>
       <r>   -2.4132    1.0000 </r>
       <r>   -2.4132    1.0000 </r>
       <r>   -0.2501    0.0000 </r>
       <r>   -0.2501    0.0000 </r>
       <r>    0.9336    0.0000 </r>
       <r>    0.9336    0.0000 </r>
       <r>    1.5345    0.0000 </r>
       <r>    1.5345    0.0000 </r>
       <r>    3.3909    0.0000 </r>
       <r>    3.3910    0.0000 </r>
      </set>
      <set comment="kpoint 94">
       <r>  -12.6224    1.0000 </r>
       <r>  -12.6224    1.0000 </r>
       <r>  -10.5716    1.0000 </r>
       <r>  -10.5716    1.0000 </r>
       <r>   -4.4389    1.0000 </r>
       <r>   -4.4389    1.0000 </r>
       <r>   -3.8780    1.0000 </r>
       <r>   -3.8780    1.0000 </r>
       <r>   -2.4574    1.0000 </r>
       <r>   -2.4574    1.0000 </r>
       <r>    0.1406    0.0000 </r>
       <r>    0.1406    0.0000 </r>
       <r>    0.7207    0.0000 </r>
       <r>    0.7207    0.0000 </r>
       <r>    1.6203    0.0000 </r>
       <r>    1.6203    0.0000 </r>
       <r>    3.4409    0.0000 </r>
       <r>    3.4411    0.0000 </r>
      </set>
      <set comment="kpoint 95">
       <r>  -12.6224    1.0000 </r>
       <r>  -12.6224    1.0000 </r>
       <r>  -10.5716    1.0000 </r>
       <r>  -10.5716    1.0000 </r>
       <r>   -4.4389    1.0000 </r>
       <r>   -4.4389    1.0000 </r>
       <r>   -3.8780    1.0000 </r>
       <r>   -3.8780    1.0000 </r>
       <r>   -2.4574    1.0000 </r>
       <r>   -2.4574    1.0000 </r>
       <r>    0.1406    0.0000 </r>
       <r>    0.1406    0.0000 </r>
       <r>    0.7207    0.0000 </r>
       <r>    0.7207    0.0000 </r>
       <r>    1.6203    0.0000 </r>
       <r>    1.6203    0.0000 </r>
       <r>    3.4408    0.0000 </r>
       <r>    3.4461    0.0000 </r>
      </set>
      <set comment="kpoint 96">
       <r>  -12.5483    1.0000 </r>
       <r>  -12.5483    1.0000 </r>
       <r>  -10.6513    1.0000 </r>
       <r>  -10.6513    1.0000 </r>
       <r>   -4.5828    1.0000 </r>
       <r>   -4.5828    1.0000 </r>
       <r>   -3.7073    1.0000 </r>
       <r>   -3.7073    1.0000 </r>
       <r>   -2.4132    1.0000 </r>
       <r>   -2.4132    1.0000 </r>
       <r>   -0.2501    0.0000 </r>
       <r>   -0.2501    0.0000 </r>
       <r>    0.9336    0.0000 </r>
       <r>    0.9336    0.0000 </r>
       <r>    1.5345    0.0000 </r>
       <r>    1.5345    0.0000 </r>
       <r>    3.3909    0.0000 </r>
       <r>    3.3910    0.0000 </r>
      </set>
      <set comment="kpoint 97">
       <r>  -12.7756    1.0000 </r>
       <r>  -12.7756    1.0000 </r>
       <r>  -10.4506    1.0000 </r>
       <r>  -10.4506    1.0000 </r>
       <r>   -4.5226    1.0000 </r>
       <r>   -4.5226    1.0000 </r>
       <r>   -3.4282    1.0000 </r>
       <r>   -3.4282    1.0000 </r>
       <r>   -2.1414    1.0000 </r>
       <r>   -2.1414    1.0000 </r>
       <r>   -0.6032    0.0000 </r>
       <r>   -0.6032    0.0000 </r>
       <r>    1.0187    0.0000 </r>
       <r>    1.0187    0.0000 </r>
       <r>    1.7240    0.0000 </r>
       <r>    1.7240    0.0000 </r>
       <r>    3.1722    0.0000 </r>
       <r>    3.1739    0.0000 </r>
      </set>
      <set comment="kpoint 98">
       <r>  -12.5483    1.0000 </r>
       <r>  -12.5483    1.0000 </r>
       <r>  -10.6513    1.0000 </r>
       <r>  -10.6513    1.0000 </r>
       <r>   -4.5828    1.0000 </r>
       <r>   -4.5828    1.0000 </r>
       <r>   -3.7073    1.0000 </r>
       <r>   -3.7073    1.0000 </r>
       <r>   -2.4132    1.0000 </r>
       <r>   -2.4132    1.0000 </r>
       <r>   -0.2501    0.0000 </r>
       <r>   -0.2501    0.0000 </r>
       <r>    0.9336    0.0000 </r>
       <r>    0.9336    0.0000 </r>
       <r>    1.5345    0.0000 </r>
       <r>    1.5345    0.0000 </r>
       <r>    3.3909    0.0000 </r>
       <r>    3.3909    0.0000 </r>
      </set>
      <set comment="kpoint 99">
       <r>  -12.2541    1.0000 </r>
       <r>  -12.2541    1.0000 </r>
       <r>  -10.9130    1.0000 </r>
       <r>  -10.9130    1.0000 </r>
       <r>   -4.6194    1.0000 </r>
       <r>   -4.6194    1.0000 </r>
       <r>   -3.9866    1.0000 </r>
       <r>   -3.9866    1.0000 </r>
       <r>   -2.7477    1.0000 </r>
       <r>   -2.7477    1.0000 </r>
       <r>    0.1521    0.0000 </r>
       <r>    0.1521    0.0000 </r>
       <r>    0.8061    0.0000 </r>
       <r>    0.8061    0.0000 </r>
       <r>    1.4962    0.0000 </r>
       <r>    1.4962    0.0000 </r>
       <r>    3.6883    0.0000 </r>
       <r>    3.6883    0.0000 </r>
      </set>
      <set comment="kpoint 100">
       <r>  -11.9169    1.0000 </r>
       <r>  -11.9169    1.0000 </r>
       <r>  -11.2219    1.0000 </r>
       <r>  -11.2219    1.0000 </r>
       <r>   -4.7709    1.0000 </r>
       <r>   -4.7709    1.0000 </r>
       <r>   -3.9864    1.0000 </r>
       <r>   -3.9864    1.0000 </r>
       <r>   -3.0244    1.0000 </r>
       <r>   -3.0244    1.0000 </r>
       <r>   -0.0267    0.0000 </r>
       <r>   -0.0267    0.0000 </r>
       <r>    1.0690    0.0000 </r>
       <r>    1.0690    0.0000 </r>
       <r>    1.6439    0.0000 </r>
       <r>    1.6439    0.0000 </r>
       <r>    4.1858    0.0000 </r>
       <r>    4.1858    0.0000 </r>
      </set>
      <set comment="kpoint 101">
       <r>  -11.5840    1.0000 </r>
       <r>  -11.5840    1.0000 </r>
       <r>  -11.5433    1.0000 </r>
       <r>  -11.5433    1.0000 </r>
       <r>   -4.8600    1.0000 </r>
       <r>   -4.8600    1.0000 </r>
       <r>   -3.9126    1.0000 </r>
       <r>   -3.9126    1.0000 </r>
       <r>   -3.1530    1.0000 </r>
       <r>   -3.1530    1.0000 </r>
       <r>   -0.1627    0.0000 </r>
       <r>   -0.1627    0.0000 </r>
       <r>    1.2347    0.0000 </r>
       <r>    1.2347    0.0000 </r>
       <r>    1.6980    0.0000 </r>
       <r>    1.6980    0.0000 </r>
       <r>    4.4490    0.0000 </r>
       <r>    4.4490    0.0000 </r>
      </set>
      <set comment="kpoint 102">
       <r>  -11.9169    1.0000 </r>
       <r>  -11.9169    1.0000 </r>
       <r>  -11.2219    1.0000 </r>
       <r>  -11.2219    1.0000 </r>
       <r>   -4.7709    1.0000 </r>
       <r>   -4.7709    1.0000 </r>
       <r>   -3.9864    1.0000 </r>
       <r>   -3.9864    1.0000 </r>
       <r>   -3.0244    1.0000 </r>
       <r>   -3.0244    1.0000 </r>
       <r>   -0.0267    0.0000 </r>
       <r>   -0.0267    0.0000 </r>
       <r>    1.0690    0.0000 </r>
       <r>    1.0690    0.0000 </r>
       <r>    1.6439    0.0000 </r>
       <r>    1.6439    0.0000 </r>
       <r>    4.1858    0.0000 </r>
       <r>    4.1858    0.0000 </r>
      </set>
      <set comment="kpoint 103">
       <r>  -12.2541    1.0000 </r>
       <r>  -12.2541    1.0000 </r>
       <r>  -10.9130    1.0000 </r>
       <r>  -10.9130    1.0000 </r>
       <r>   -4.6194    1.0000 </r>
       <r>   -4.6194    1.0000 </r>
       <r>   -3.9866    1.0000 </r>
       <r>   -3.9866    1.0000 </r>
       <r>   -2.7477    1.0000 </r>
       <r>   -2.7477    1.0000 </r>
       <r>    0.1521    0.0000 </r>
       <r>    0.1521    0.0000 </r>
       <r>    0.8061    0.0000 </r>
       <r>    0.8061    0.0000 </r>
       <r>    1.4962    0.0000 </r>
       <r>    1.4962    0.0000 </r>
       <r>    3.6883    0.0000 </r>
       <r>    3.6883    0.0000 </r>
      </set>
      <set comment="kpoint 104">
       <r>  -12.5483    1.0000 </r>
       <r>  -12.5483    1.0000 </r>
       <r>  -10.6513    1.0000 </r>
       <r>  -10.6513    1.0000 </r>
       <r>   -4.5828    1.0000 </r>
       <r>   -4.5828    1.0000 </r>
       <r>   -3.7073    1.0000 </r>
       <r>   -3.7073    1.0000 </r>
       <r>   -2.4132    1.0000 </r>
       <r>   -2.4132    1.0000 </r>
       <r>   -0.2501    0.0000 </r>
       <r>   -0.2501    0.0000 </r>
       <r>    0.9336    0.0000 </r>
       <r>    0.9336    0.0000 </r>
       <r>    1.5345    0.0000 </r>
       <r>    1.5345    0.0000 </r>
       <r>    3.3909    0.0000 </r>
       <r>    3.3916    0.0000 </r>
      </set>
      <set comment="kpoint 105">
       <r>  -12.7756    1.0000 </r>
       <r>  -12.7756    1.0000 </r>
       <r>  -10.4506    1.0000 </r>
       <r>  -10.4506    1.0000 </r>
       <r>   -4.5226    1.0000 </r>
       <r>   -4.5226    1.0000 </r>
       <r>   -3.4282    1.0000 </r>
       <r>   -3.4282    1.0000 </r>
       <r>   -2.1414    1.0000 </r>
       <r>   -2.1414    1.0000 </r>
       <r>   -0.6032    0.0000 </r>
       <r>   -0.6032    0.0000 </r>
       <r>    1.0187    0.0000 </r>
       <r>    1.0187    0.0000 </r>
       <r>    1.7240    0.0000 </r>
       <r>    1.7240    0.0000 </r>
       <r>    3.1722    0.0000 </r>
       <r>    3.1724    0.0000 </r>
      </set>
      <set comment="kpoint 106">
       <r>  -12.9186    1.0000 </r>
       <r>  -12.9186    1.0000 </r>
       <r>  -10.3239    1.0000 </r>
       <r>  -10.3239    1.0000 </r>
       <r>   -4.3674    1.0000 </r>
       <r>   -4.3674    1.0000 </r>
       <r>   -3.3988    1.0000 </r>
       <r>   -3.3988    1.0000 </r>
       <r>   -2.1325    1.0000 </r>
       <r>   -2.1325    1.0000 </r>
       <r>   -0.3513    0.0000 </r>
       <r>   -0.3513    0.0000 </r>
       <r>    0.9912    0.0000 </r>
       <r>    0.9912    0.0000 </r>
       <r>    1.6438    0.0000 </r>
       <r>    1.6438    0.0000 </r>
       <r>    3.0645    0.0000 </r>
       <r>    3.0736    0.0000 </r>
      </set>
      <set comment="kpoint 107">
       <r>  -12.9674    1.0000 </r>
       <r>  -12.9674    1.0000 </r>
       <r>  -10.2805    1.0000 </r>
       <r>  -10.2805    1.0000 </r>
       <r>   -4.2491    1.0000 </r>
       <r>   -4.2491    1.0000 </r>
       <r>   -3.4860    1.0000 </r>
       <r>   -3.4860    1.0000 </r>
       <r>   -2.1678    1.0000 </r>
       <r>   -2.1678    1.0000 </r>
       <r>    0.0327    0.0000 </r>
       <r>    0.0327    0.0000 </r>
       <r>    0.7203    0.0000 </r>
       <r>    0.7203    0.0000 </r>
       <r>    1.6718    0.0000 </r>
       <r>    1.6718    0.0000 </r>
       <r>    3.0253    0.0000 </r>
       <r>    3.0253    0.0000 </r>
      </set>
      <set comment="kpoint 108">
       <r>  -12.9186    1.0000 </r>
       <r>  -12.9186    1.0000 </r>
       <r>  -10.3239    1.0000 </r>
       <r>  -10.3239    1.0000 </r>
       <r>   -4.3674    1.0000 </r>
       <r>   -4.3674    1.0000 </r>
       <r>   -3.3988    1.0000 </r>
       <r>   -3.3988    1.0000 </r>
       <r>   -2.1325    1.0000 </r>
       <r>   -2.1325    1.0000 </r>
       <r>   -0.3513    0.0000 </r>
       <r>   -0.3513    0.0000 </r>
       <r>    0.9912    0.0000 </r>
       <r>    0.9912    0.0000 </r>
       <r>    1.6438    0.0000 </r>
       <r>    1.6438    0.0000 </r>
       <r>    3.0645    0.0000 </r>
       <r>    3.0646    0.0000 </r>
      </set>
      <set comment="kpoint 109">
       <r>  -13.1272    1.0000 </r>
       <r>  -13.1272    1.0000 </r>
       <r>  -10.1629    1.0000 </r>
       <r>  -10.1629    1.0000 </r>
       <r>   -4.1994    1.0000 </r>
       <r>   -4.1994    1.0000 </r>
       <r>   -3.0573    1.0000 </r>
       <r>   -3.0573    1.0000 </r>
       <r>   -1.8397    1.0000 </r>
       <r>   -1.8397    1.0000 </r>
       <r>   -0.6562    0.0000 </r>
       <r>   -0.6562    0.0000 </r>
       <r>    1.0744    0.0000 </r>
       <r>    1.0744    0.0000 </r>
       <r>    1.7022    0.0000 </r>
       <r>    1.7022    0.0000 </r>
       <r>    2.8171    0.0000 </r>
       <r>    2.8172    0.0000 </r>
      </set>
      <set comment="kpoint 110">
       <r>  -12.9186    1.0000 </r>
       <r>  -12.9186    1.0000 </r>
       <r>  -10.3239    1.0000 </r>
       <r>  -10.3239    1.0000 </r>
       <r>   -4.3674    1.0000 </r>
       <r>   -4.3674    1.0000 </r>
       <r>   -3.3988    1.0000 </r>
       <r>   -3.3988    1.0000 </r>
       <r>   -2.1325    1.0000 </r>
       <r>   -2.1325    1.0000 </r>
       <r>   -0.3513    0.0000 </r>
       <r>   -0.3513    0.0000 </r>
       <r>    0.9912    0.0000 </r>
       <r>    0.9912    0.0000 </r>
       <r>    1.6438    0.0000 </r>
       <r>    1.6438    0.0000 </r>
       <r>    3.0645    0.0000 </r>
       <r>    3.0646    0.0000 </r>
      </set>
      <set comment="kpoint 111">
       <r>  -12.6224    1.0000 </r>
       <r>  -12.6224    1.0000 </r>
       <r>  -10.5716    1.0000 </r>
       <r>  -10.5716    1.0000 </r>
       <r>   -4.4389    1.0000 </r>
       <r>   -4.4389    1.0000 </r>
       <r>   -3.8780    1.0000 </r>
       <r>   -3.8780    1.0000 </r>
       <r>   -2.4574    1.0000 </r>
       <r>   -2.4574    1.0000 </r>
       <r>    0.1406    0.0000 </r>
       <r>    0.1406    0.0000 </r>
       <r>    0.7207    0.0000 </r>
       <r>    0.7207    0.0000 </r>
       <r>    1.6203    0.0000 </r>
       <r>    1.6203    0.0000 </r>
       <r>    3.4411    0.0000 </r>
       <r>    3.4421    0.0000 </r>
      </set>
      <set comment="kpoint 112">
       <r>  -12.2647    1.0000 </r>
       <r>  -12.2647    1.0000 </r>
       <r>  -10.8928    1.0000 </r>
       <r>  -10.8928    1.0000 </r>
       <r>   -4.5780    1.0000 </r>
       <r>   -4.5780    1.0000 </r>
       <r>   -4.0849    1.0000 </r>
       <r>   -4.0849    1.0000 </r>
       <r>   -2.7698    1.0000 </r>
       <r>   -2.7698    1.0000 </r>
       <r>    0.1772    0.0000 </r>
       <r>    0.1772    0.0000 </r>
       <r>    0.7520    0.0000 </r>
       <r>    0.7520    0.0000 </r>
       <r>    1.7073    0.0000 </r>
       <r>    1.7073    0.0000 </r>
       <r>    3.9070    0.0000 </r>
       <r>    3.9080    0.0000 </r>
      </set>
      <set comment="kpoint 113">
       <r>  -11.9169    1.0000 </r>
       <r>  -11.9169    1.0000 </r>
       <r>  -11.2219    1.0000 </r>
       <r>  -11.2219    1.0000 </r>
       <r>   -4.7709    1.0000 </r>
       <r>   -4.7709    1.0000 </r>
       <r>   -3.9864    1.0000 </r>
       <r>   -3.9864    1.0000 </r>
       <r>   -3.0244    1.0000 </r>
       <r>   -3.0244    1.0000 </r>
       <r>   -0.0267    0.0000 </r>
       <r>   -0.0267    0.0000 </r>
       <r>    1.0690    0.0000 </r>
       <r>    1.0690    0.0000 </r>
       <r>    1.6439    0.0000 </r>
       <r>    1.6439    0.0000 </r>
       <r>    4.1858    0.0000 </r>
       <r>    4.1858    0.0000 </r>
      </set>
      <set comment="kpoint 114">
       <r>  -11.9169    1.0000 </r>
       <r>  -11.9169    1.0000 </r>
       <r>  -11.2219    1.0000 </r>
       <r>  -11.2219    1.0000 </r>
       <r>   -4.7709    1.0000 </r>
       <r>   -4.7709    1.0000 </r>
       <r>   -3.9864    1.0000 </r>
       <r>   -3.9864    1.0000 </r>
       <r>   -3.0244    1.0000 </r>
       <r>   -3.0244    1.0000 </r>
       <r>   -0.0267    0.0000 </r>
       <r>   -0.0267    0.0000 </r>
       <r>    1.0690    0.0000 </r>
       <r>    1.0690    0.0000 </r>
       <r>    1.6439    0.0000 </r>
       <r>    1.6439    0.0000 </r>
       <r>    4.1858    0.0000 </r>
       <r>    4.1858    0.0000 </r>
      </set>
      <set comment="kpoint 115">
       <r>  -12.2647    1.0000 </r>
       <r>  -12.2647    1.0000 </r>
       <r>  -10.8928    1.0000 </r>
       <r>  -10.8928    1.0000 </r>
       <r>   -4.5780    1.0000 </r>
       <r>   -4.5780    1.0000 </r>
       <r>   -4.0849    1.0000 </r>
       <r>   -4.0849    1.0000 </r>
       <r>   -2.7698    1.0000 </r>
       <r>   -2.7698    1.0000 </r>
       <r>    0.1772    0.0000 </r>
       <r>    0.1772    0.0000 </r>
       <r>    0.7520    0.0000 </r>
       <r>    0.7520    0.0000 </r>
       <r>    1.7073    0.0000 </r>
       <r>    1.7073    0.0000 </r>
       <r>    3.9069    0.0000 </r>
       <r>    3.9081    0.0000 </r>
      </set>
      <set comment="kpoint 116">
       <r>  -12.6224    1.0000 </r>
       <r>  -12.6224    1.0000 </r>
       <r>  -10.5716    1.0000 </r>
       <r>  -10.5716    1.0000 </r>
       <r>   -4.4389    1.0000 </r>
       <r>   -4.4389    1.0000 </r>
       <r>   -3.8780    1.0000 </r>
       <r>   -3.8780    1.0000 </r>
       <r>   -2.4574    1.0000 </r>
       <r>   -2.4574    1.0000 </r>
       <r>    0.1406    0.0000 </r>
       <r>    0.1406    0.0000 </r>
       <r>    0.7207    0.0000 </r>
       <r>    0.7207    0.0000 </r>
       <r>    1.6203    0.0000 </r>
       <r>    1.6203    0.0000 </r>
       <r>    3.4409    0.0000 </r>
       <r>    3.4411    0.0000 </r>
      </set>
      <set comment="kpoint 117">
       <r>  -12.9186    1.0000 </r>
       <r>  -12.9186    1.0000 </r>
       <r>  -10.3239    1.0000 </r>
       <r>  -10.3239    1.0000 </r>
       <r>   -4.3674    1.0000 </r>
       <r>   -4.3674    1.0000 </r>
       <r>   -3.3988    1.0000 </r>
       <r>   -3.3988    1.0000 </r>
       <r>   -2.1325    1.0000 </r>
       <r>   -2.1325    1.0000 </r>
       <r>   -0.3513    0.0000 </r>
       <r>   -0.3513    0.0000 </r>
       <r>    0.9912    0.0000 </r>
       <r>    0.9912    0.0000 </r>
       <r>    1.6438    0.0000 </r>
       <r>    1.6438    0.0000 </r>
       <r>    3.0645    0.0000 </r>
       <r>    3.0649    0.0000 </r>
      </set>
      <set comment="kpoint 118">
       <r>  -13.1272    1.0000 </r>
       <r>  -13.1272    1.0000 </r>
       <r>  -10.1629    1.0000 </r>
       <r>  -10.1629    1.0000 </r>
       <r>   -4.1994    1.0000 </r>
       <r>   -4.1994    1.0000 </r>
       <r>   -3.0573    1.0000 </r>
       <r>   -3.0573    1.0000 </r>
       <r>   -1.8397    1.0000 </r>
       <r>   -1.8397    1.0000 </r>
       <r>   -0.6562    0.0000 </r>
       <r>   -0.6562    0.0000 </r>
       <r>    1.0744    0.0000 </r>
       <r>    1.0744    0.0000 </r>
       <r>    1.7022    0.0000 </r>
       <r>    1.7022    0.0000 </r>
       <r>    2.8171    0.0000 </r>
       <r>    2.8191    0.0000 </r>
      </set>
      <set comment="kpoint 119">
       <r>  -13.2346    1.0000 </r>
       <r>  -13.2346    1.0000 </r>
       <r>  -10.0854    1.0000 </r>
       <r>  -10.0854    1.0000 </r>
       <r>   -4.0071    1.0000 </r>
       <r>   -4.0071    1.0000 </r>
       <r>   -2.9807    1.0000 </r>
       <r>   -2.9807    1.0000 </r>
       <r>   -1.8668    1.0000 </r>
       <r>   -1.8668    1.0000 </r>
       <r>   -0.2961    0.0000 </r>
       <r>   -0.2961    0.0000 </r>
       <r>    0.8452    0.0000 </r>
       <r>    0.8452    0.0000 </r>
       <r>    1.6315    0.0000 </r>
       <r>    1.6315    0.0000 </r>
       <r>    2.6984    0.0000 </r>
       <r>    2.6985    0.0000 </r>
      </set>
      <set comment="kpoint 120">
       <r>  -13.2346    1.0000 </r>
       <r>  -13.2346    1.0000 </r>
       <r>  -10.0854    1.0000 </r>
       <r>  -10.0854    1.0000 </r>
       <r>   -4.0071    1.0000 </r>
       <r>   -4.0071    1.0000 </r>
       <r>   -2.9807    1.0000 </r>
       <r>   -2.9807    1.0000 </r>
       <r>   -1.8668    1.0000 </r>
       <r>   -1.8668    1.0000 </r>
       <r>   -0.2961    0.0000 </r>
       <r>   -0.2961    0.0000 </r>
       <r>    0.8452    0.0000 </r>
       <r>    0.8452    0.0000 </r>
       <r>    1.6315    0.0000 </r>
       <r>    1.6315    0.0000 </r>
       <r>    2.6984    0.0000 </r>
       <r>    2.6985    0.0000 </r>
      </set>
      <set comment="kpoint 121">
       <r>  -13.4015    1.0000 </r>
       <r>  -13.4015    1.0000 </r>
       <r>   -9.9811    1.0000 </r>
       <r>   -9.9811    1.0000 </r>
       <r>   -3.7439    1.0000 </r>
       <r>   -3.7439    1.0000 </r>
       <r>   -2.6335    1.0000 </r>
       <r>   -2.6335    1.0000 </r>
       <r>   -1.5734    1.0000 </r>
       <r>   -1.5734    1.0000 </r>
       <r>   -0.5228    0.0000 </r>
       <r>   -0.5228    0.0000 </r>
       <r>    0.9045    0.0000 </r>
       <r>    0.9045    0.0000 </r>
       <r>    1.4752    0.0000 </r>
       <r>    1.4752    0.0000 </r>
       <r>    2.4940    0.0000 </r>
       <r>    2.4941    0.0000 </r>
      </set>
      <set comment="kpoint 122">
       <r>  -13.2346    1.0000 </r>
       <r>  -13.2346    1.0000 </r>
       <r>  -10.0854    1.0000 </r>
       <r>  -10.0854    1.0000 </r>
       <r>   -4.0071    1.0000 </r>
       <r>   -4.0071    1.0000 </r>
       <r>   -2.9807    1.0000 </r>
       <r>   -2.9807    1.0000 </r>
       <r>   -1.8668    1.0000 </r>
       <r>   -1.8668    1.0000 </r>
       <r>   -0.2961    0.0000 </r>
       <r>   -0.2961    0.0000 </r>
       <r>    0.8452    0.0000 </r>
       <r>    0.8452    0.0000 </r>
       <r>    1.6315    0.0000 </r>
       <r>    1.6315    0.0000 </r>
       <r>    2.6984    0.0000 </r>
       <r>    2.6985    0.0000 </r>
      </set>
      <set comment="kpoint 123">
       <r>  -12.9674    1.0000 </r>
       <r>  -12.9674    1.0000 </r>
       <r>  -10.2805    1.0000 </r>
       <r>  -10.2805    1.0000 </r>
       <r>   -4.2491    1.0000 </r>
       <r>   -4.2491    1.0000 </r>
       <r>   -3.4860    1.0000 </r>
       <r>   -3.4860    1.0000 </r>
       <r>   -2.1678    1.0000 </r>
       <r>   -2.1678    1.0000 </r>
       <r>    0.0327    0.0000 </r>
       <r>    0.0327    0.0000 </r>
       <r>    0.7203    0.0000 </r>
       <r>    0.7203    0.0000 </r>
       <r>    1.6718    0.0000 </r>
       <r>    1.6718    0.0000 </r>
       <r>    3.0253    0.0000 </r>
       <r>    3.0256    0.0000 </r>
      </set>
      <set comment="kpoint 124">
       <r>  -12.6224    1.0000 </r>
       <r>  -12.6224    1.0000 </r>
       <r>  -10.5716    1.0000 </r>
       <r>  -10.5716    1.0000 </r>
       <r>   -4.4389    1.0000 </r>
       <r>   -4.4389    1.0000 </r>
       <r>   -3.8780    1.0000 </r>
       <r>   -3.8780    1.0000 </r>
       <r>   -2.4574    1.0000 </r>
       <r>   -2.4574    1.0000 </r>
       <r>    0.1406    0.0000 </r>
       <r>    0.1406    0.0000 </r>
       <r>    0.7207    0.0000 </r>
       <r>    0.7207    0.0000 </r>
       <r>    1.6203    0.0000 </r>
       <r>    1.6203    0.0000 </r>
       <r>    3.4409    0.0000 </r>
       <r>    3.4450    0.0000 </r>
      </set>
      <set comment="kpoint 125">
       <r>  -12.2541    1.0000 </r>
       <r>  -12.2541    1.0000 </r>
       <r>  -10.9130    1.0000 </r>
       <r>  -10.9130    1.0000 </r>
       <r>   -4.6194    1.0000 </r>
       <r>   -4.6194    1.0000 </r>
       <r>   -3.9866    1.0000 </r>
       <r>   -3.9866    1.0000 </r>
       <r>   -2.7477    1.0000 </r>
       <r>   -2.7477    1.0000 </r>
       <r>    0.1521    0.0000 </r>
       <r>    0.1521    0.0000 </r>
       <r>    0.8061    0.0000 </r>
       <r>    0.8061    0.0000 </r>
       <r>    1.4962    0.0000 </r>
       <r>    1.4962    0.0000 </r>
       <r>    3.6883    0.0000 </r>
       <r>    3.6883    0.0000 </r>
      </set>
      <set comment="kpoint 126">
       <r>  -12.0479    1.0000 </r>
       <r>  -12.0479    1.0000 </r>
       <r>  -11.1121    1.0000 </r>
       <r>  -11.1121    1.0000 </r>
       <r>   -4.6998    1.0000 </r>
       <r>   -4.6998    1.0000 </r>
       <r>   -3.9717    1.0000 </r>
       <r>   -3.9717    1.0000 </r>
       <r>   -2.8862    1.0000 </r>
       <r>   -2.8862    1.0000 </r>
       <r>    0.1471    0.0000 </r>
       <r>    0.1471    0.0000 </r>
       <r>    0.8842    0.0000 </r>
       <r>    0.8842    0.0000 </r>
       <r>    1.4095    0.0000 </r>
       <r>    1.4095    0.0000 </r>
       <r>    3.6494    0.0000 </r>
       <r>    3.6494    0.0000 </r>
      </set>
      <set comment="kpoint 127">
       <r>  -12.2541    1.0000 </r>
       <r>  -12.2541    1.0000 </r>
       <r>  -10.9130    1.0000 </r>
       <r>  -10.9130    1.0000 </r>
       <r>   -4.6194    1.0000 </r>
       <r>   -4.6194    1.0000 </r>
       <r>   -3.9866    1.0000 </r>
       <r>   -3.9866    1.0000 </r>
       <r>   -2.7477    1.0000 </r>
       <r>   -2.7477    1.0000 </r>
       <r>    0.1521    0.0000 </r>
       <r>    0.1521    0.0000 </r>
       <r>    0.8061    0.0000 </r>
       <r>    0.8061    0.0000 </r>
       <r>    1.4962    0.0000 </r>
       <r>    1.4962    0.0000 </r>
       <r>    3.6883    0.0000 </r>
       <r>    3.6883    0.0000 </r>
      </set>
      <set comment="kpoint 128">
       <r>  -12.6224    1.0000 </r>
       <r>  -12.6224    1.0000 </r>
       <r>  -10.5716    1.0000 </r>
       <r>  -10.5716    1.0000 </r>
       <r>   -4.4389    1.0000 </r>
       <r>   -4.4389    1.0000 </r>
       <r>   -3.8780    1.0000 </r>
       <r>   -3.8780    1.0000 </r>
       <r>   -2.4574    1.0000 </r>
       <r>   -2.4574    1.0000 </r>
       <r>    0.1406    0.0000 </r>
       <r>    0.1406    0.0000 </r>
       <r>    0.7207    0.0000 </r>
       <r>    0.7207    0.0000 </r>
       <r>    1.6203    0.0000 </r>
       <r>    1.6203    0.0000 </r>
       <r>    3.4409    0.0000 </r>
       <r>    3.4420    0.0000 </r>
      </set>
      <set comment="kpoint 129">
       <r>  -12.9674    1.0000 </r>
       <r>  -12.9674    1.0000 </r>
       <r>  -10.2805    1.0000 </r>
       <r>  -10.2805    1.0000 </r>
       <r>   -4.2491    1.0000 </r>
       <r>   -4.2491    1.0000 </r>
       <r>   -3.4860    1.0000 </r>
       <r>   -3.4860    1.0000 </r>
       <r>   -2.1678    1.0000 </r>
       <r>   -2.1678    1.0000 </r>
       <r>    0.0327    0.0000 </r>
       <r>    0.0327    0.0000 </r>
       <r>    0.7203    0.0000 </r>
       <r>    0.7203    0.0000 </r>
       <r>    1.6718    0.0000 </r>
       <r>    1.6718    0.0000 </r>
       <r>    3.0253    0.0000 </r>
       <r>    3.0254    0.0000 </r>
      </set>
      <set comment="kpoint 130">
       <r>  -13.2346    1.0000 </r>
       <r>  -13.2346    1.0000 </r>
       <r>  -10.0854    1.0000 </r>
       <r>  -10.0854    1.0000 </r>
       <r>   -4.0071    1.0000 </r>
       <r>   -4.0071    1.0000 </r>
       <r>   -2.9807    1.0000 </r>
       <r>   -2.9807    1.0000 </r>
       <r>   -1.8668    1.0000 </r>
       <r>   -1.8668    1.0000 </r>
       <r>   -0.2961    0.0000 </r>
       <r>   -0.2961    0.0000 </r>
       <r>    0.8452    0.0000 </r>
       <r>    0.8452    0.0000 </r>
       <r>    1.6315    0.0000 </r>
       <r>    1.6315    0.0000 </r>
       <r>    2.6984    0.0000 </r>
       <r>    2.6985    0.0000 </r>
      </set>
      <set comment="kpoint 131">
       <r>  -13.4015    1.0000 </r>
       <r>  -13.4015    1.0000 </r>
       <r>   -9.9811    1.0000 </r>
       <r>   -9.9811    1.0000 </r>
       <r>   -3.7439    1.0000 </r>
       <r>   -3.7439    1.0000 </r>
       <r>   -2.6335    1.0000 </r>
       <r>   -2.6335    1.0000 </r>
       <r>   -1.5734    1.0000 </r>
       <r>   -1.5734    1.0000 </r>
       <r>   -0.5228    0.0000 </r>
       <r>   -0.5228    0.0000 </r>
       <r>    0.9045    0.0000 </r>
       <r>    0.9045    0.0000 </r>
       <r>    1.4752    0.0000 </r>
       <r>    1.4752    0.0000 </r>
       <r>    2.4940    0.0000 </r>
       <r>    2.4941    0.0000 </r>
      </set>
      <set comment="kpoint 132">
       <r>  -13.4582    1.0000 </r>
       <r>  -13.4582    1.0000 </r>
       <r>   -9.9493    1.0000 </r>
       <r>   -9.9493    1.0000 </r>
       <r>   -3.6187    1.0000 </r>
       <r>   -3.6187    1.0000 </r>
       <r>   -2.5056    1.0000 </r>
       <r>   -2.5056    1.0000 </r>
       <r>   -1.5853    1.0000 </r>
       <r>   -1.5853    1.0000 </r>
       <r>   -0.3267    0.0000 </r>
       <r>   -0.3267    0.0000 </r>
       <r>    0.6934    0.0000 </r>
       <r>    0.6934    0.0000 </r>
       <r>    1.4482    0.0000 </r>
       <r>    1.4482    0.0000 </r>
       <r>    2.4240    0.0000 </r>
       <r>    2.4241    0.0000 </r>
      </set>
      <set comment="kpoint 133">
       <r>  -13.5733    1.0000 </r>
       <r>  -13.5733    1.0000 </r>
       <r>   -9.8918    1.0000 </r>
       <r>   -9.8918    1.0000 </r>
       <r>   -3.3847    1.0000 </r>
       <r>   -3.3847    1.0000 </r>
       <r>   -2.0684    1.0000 </r>
       <r>   -2.0684    1.0000 </r>
       <r>   -1.3490    1.0000 </r>
       <r>   -1.3490    1.0000 </r>
       <r>   -0.5608    0.0000 </r>
       <r>   -0.5608    0.0000 </r>
       <r>    0.5662    0.0000 </r>
       <r>    0.5662    0.0000 </r>
       <r>    1.4292    0.0000 </r>
       <r>    1.4292    0.0000 </r>
       <r>    2.2576    0.0000 </r>
       <r>    2.2577    0.0000 </r>
      </set>
      <set comment="kpoint 134">
       <r>  -13.4582    1.0000 </r>
       <r>  -13.4582    1.0000 </r>
       <r>   -9.9493    1.0000 </r>
       <r>   -9.9493    1.0000 </r>
       <r>   -3.6187    1.0000 </r>
       <r>   -3.6187    1.0000 </r>
       <r>   -2.5056    1.0000 </r>
       <r>   -2.5056    1.0000 </r>
       <r>   -1.5853    1.0000 </r>
       <r>   -1.5853    1.0000 </r>
       <r>   -0.3267    0.0000 </r>
       <r>   -0.3267    0.0000 </r>
       <r>    0.6934    0.0000 </r>
       <r>    0.6934    0.0000 </r>
       <r>    1.4482    0.0000 </r>
       <r>    1.4482    0.0000 </r>
       <r>    2.4240    0.0000 </r>
       <r>    2.4241    0.0000 </r>
      </set>
      <set comment="kpoint 135">
       <r>  -13.2346    1.0000 </r>
       <r>  -13.2346    1.0000 </r>
       <r>  -10.0854    1.0000 </r>
       <r>  -10.0854    1.0000 </r>
       <r>   -4.0071    1.0000 </r>
       <r>   -4.0071    1.0000 </r>
       <r>   -2.9807    1.0000 </r>
       <r>   -2.9807    1.0000 </r>
       <r>   -1.8668    1.0000 </r>
       <r>   -1.8668    1.0000 </r>
       <r>   -0.2961    0.0000 </r>
       <r>   -0.2961    0.0000 </r>
       <r>    0.8452    0.0000 </r>
       <r>    0.8452    0.0000 </r>
       <r>    1.6315    0.0000 </r>
       <r>    1.6315    0.0000 </r>
       <r>    2.6984    0.0000 </r>
       <r>    2.6985    0.0000 </r>
      </set>
      <set comment="kpoint 136">
       <r>  -12.9186    1.0000 </r>
       <r>  -12.9186    1.0000 </r>
       <r>  -10.3239    1.0000 </r>
       <r>  -10.3239    1.0000 </r>
       <r>   -4.3674    1.0000 </r>
       <r>   -4.3674    1.0000 </r>
       <r>   -3.3988    1.0000 </r>
       <r>   -3.3988    1.0000 </r>
       <r>   -2.1325    1.0000 </r>
       <r>   -2.1325    1.0000 </r>
       <r>   -0.3513    0.0000 </r>
       <r>   -0.3513    0.0000 </r>
       <r>    0.9912    0.0000 </r>
       <r>    0.9912    0.0000 </r>
       <r>    1.6438    0.0000 </r>
       <r>    1.6438    0.0000 </r>
       <r>    3.0645    0.0000 </r>
       <r>    3.0648    0.0000 </r>
      </set>
      <set comment="kpoint 137">
       <r>  -12.5483    1.0000 </r>
       <r>  -12.5483    1.0000 </r>
       <r>  -10.6513    1.0000 </r>
       <r>  -10.6513    1.0000 </r>
       <r>   -4.5828    1.0000 </r>
       <r>   -4.5828    1.0000 </r>
       <r>   -3.7073    1.0000 </r>
       <r>   -3.7073    1.0000 </r>
       <r>   -2.4132    1.0000 </r>
       <r>   -2.4132    1.0000 </r>
       <r>   -0.2501    0.0000 </r>
       <r>   -0.2501    0.0000 </r>
       <r>    0.9336    0.0000 </r>
       <r>    0.9336    0.0000 </r>
       <r>    1.5345    0.0000 </r>
       <r>    1.5345    0.0000 </r>
       <r>    3.3909    0.0000 </r>
       <r>    3.3911    0.0000 </r>
      </set>
      <set comment="kpoint 138">
       <r>  -12.2320    1.0000 </r>
       <r>  -12.2320    1.0000 </r>
       <r>  -10.9541    1.0000 </r>
       <r>  -10.9541    1.0000 </r>
       <r>   -4.6594    1.0000 </r>
       <r>   -4.6594    1.0000 </r>
       <r>   -3.8746    1.0000 </r>
       <r>   -3.8746    1.0000 </r>
       <r>   -2.6047    1.0000 </r>
       <r>   -2.6047    1.0000 </r>
       <r>   -0.0840    0.0000 </r>
       <r>   -0.0840    0.0000 </r>
       <r>    0.7630    0.0000 </r>
       <r>    0.7630    0.0000 </r>
       <r>    1.4930    0.0000 </r>
       <r>    1.4930    0.0000 </r>
       <r>    3.3792    0.0000 </r>
       <r>    3.3792    0.0000 </r>
      </set>
      <set comment="kpoint 139">
       <r>  -12.2320    1.0000 </r>
       <r>  -12.2320    1.0000 </r>
       <r>  -10.9541    1.0000 </r>
       <r>  -10.9541    1.0000 </r>
       <r>   -4.6594    1.0000 </r>
       <r>   -4.6594    1.0000 </r>
       <r>   -3.8746    1.0000 </r>
       <r>   -3.8746    1.0000 </r>
       <r>   -2.6047    1.0000 </r>
       <r>   -2.6047    1.0000 </r>
       <r>   -0.0840    0.0000 </r>
       <r>   -0.0840    0.0000 </r>
       <r>    0.7630    0.0000 </r>
       <r>    0.7630    0.0000 </r>
       <r>    1.4930    0.0000 </r>
       <r>    1.4930    0.0000 </r>
       <r>    3.3792    0.0000 </r>
       <r>    3.3792    0.0000 </r>
      </set>
      <set comment="kpoint 140">
       <r>  -12.5483    1.0000 </r>
       <r>  -12.5483    1.0000 </r>
       <r>  -10.6513    1.0000 </r>
       <r>  -10.6513    1.0000 </r>
       <r>   -4.5828    1.0000 </r>
       <r>   -4.5828    1.0000 </r>
       <r>   -3.7073    1.0000 </r>
       <r>   -3.7073    1.0000 </r>
       <r>   -2.4132    1.0000 </r>
       <r>   -2.4132    1.0000 </r>
       <r>   -0.2501    0.0000 </r>
       <r>   -0.2501    0.0000 </r>
       <r>    0.9336    0.0000 </r>
       <r>    0.9336    0.0000 </r>
       <r>    1.5345    0.0000 </r>
       <r>    1.5345    0.0000 </r>
       <r>    3.3909    0.0000 </r>
       <r>    3.3910    0.0000 </r>
      </set>
      <set comment="kpoint 141">
       <r>  -12.9186    1.0000 </r>
       <r>  -12.9186    1.0000 </r>
       <r>  -10.3239    1.0000 </r>
       <r>  -10.3239    1.0000 </r>
       <r>   -4.3674    1.0000 </r>
       <r>   -4.3674    1.0000 </r>
       <r>   -3.3988    1.0000 </r>
       <r>   -3.3988    1.0000 </r>
       <r>   -2.1325    1.0000 </r>
       <r>   -2.1325    1.0000 </r>
       <r>   -0.3513    0.0000 </r>
       <r>   -0.3513    0.0000 </r>
       <r>    0.9912    0.0000 </r>
       <r>    0.9912    0.0000 </r>
       <r>    1.6438    0.0000 </r>
       <r>    1.6438    0.0000 </r>
       <r>    3.0644    0.0000 </r>
       <r>    3.0647    0.0000 </r>
      </set>
      <set comment="kpoint 142">
       <r>  -13.2346    1.0000 </r>
       <r>  -13.2346    1.0000 </r>
       <r>  -10.0854    1.0000 </r>
       <r>  -10.0854    1.0000 </r>
       <r>   -4.0071    1.0000 </r>
       <r>   -4.0071    1.0000 </r>
       <r>   -2.9807    1.0000 </r>
       <r>   -2.9807    1.0000 </r>
       <r>   -1.8668    1.0000 </r>
       <r>   -1.8668    1.0000 </r>
       <r>   -0.2961    0.0000 </r>
       <r>   -0.2961    0.0000 </r>
       <r>    0.8452    0.0000 </r>
       <r>    0.8452    0.0000 </r>
       <r>    1.6315    0.0000 </r>
       <r>    1.6315    0.0000 </r>
       <r>    2.6984    0.0000 </r>
       <r>    2.6985    0.0000 </r>
      </set>
      <set comment="kpoint 143">
       <r>  -13.4582    1.0000 </r>
       <r>  -13.4582    1.0000 </r>
       <r>   -9.9493    1.0000 </r>
       <r>   -9.9493    1.0000 </r>
       <r>   -3.6187    1.0000 </r>
       <r>   -3.6187    1.0000 </r>
       <r>   -2.5056    1.0000 </r>
       <r>   -2.5056    1.0000 </r>
       <r>   -1.5853    1.0000 </r>
       <r>   -1.5853    1.0000 </r>
       <r>   -0.3267    0.0000 </r>
       <r>   -0.3267    0.0000 </r>
       <r>    0.6934    0.0000 </r>
       <r>    0.6934    0.0000 </r>
       <r>    1.4482    0.0000 </r>
       <r>    1.4482    0.0000 </r>
       <r>    2.4240    0.0000 </r>
       <r>    2.4241    0.0000 </r>
      </set>
      <set comment="kpoint 144">
       <r>  -13.5733    1.0000 </r>
       <r>  -13.5733    1.0000 </r>
       <r>   -9.8918    1.0000 </r>
       <r>   -9.8918    1.0000 </r>
       <r>   -3.3847    1.0000 </r>
       <r>   -3.3847    1.0000 </r>
       <r>   -2.0684    1.0000 </r>
       <r>   -2.0684    1.0000 </r>
       <r>   -1.3490    1.0000 </r>
       <r>   -1.3490    1.0000 </r>
       <r>   -0.5608    0.0000 </r>
       <r>   -0.5608    0.0000 </r>
       <r>    0.5662    0.0000 </r>
       <r>    0.5662    0.0000 </r>
       <r>    1.4292    0.0000 </r>
       <r>    1.4292    0.0000 </r>
       <r>    2.2576    0.0000 </r>
       <r>    2.2577    0.0000 </r>
      </set>
     </set>
    </set>
   </array>
  </eigenvalues>
  <separator name="orbital magnetization" >
   <v name="MAGDIPOLOUT">      0.00000000      0.00000000      0.00000000</v>
  </separator>
  <dos>
   <i name="efermi">     -1.25990207 </i>
   <total>
    <array>
     <dimension dim="1">gridpoints</dimension>
     <dimension dim="2">spin</dimension>
     <field>energy</field>
     <field>total</field>
     <field>integrated</field>
     <set>
      <set comment="spin 1">
       <r>   -14.5356     0.0000     0.0000 </r>
       <r>   -14.4693     0.0000     0.0000 </r>
       <r>   -14.4030     0.0000     0.0000 </r>
       <r>   -14.3367     0.0000     0.0000 </r>
       <r>   -14.2704     0.0000     0.0000 </r>
       <r>   -14.2041     0.0000     0.0000 </r>
       <r>   -14.1378     0.0000     0.0000 </r>
       <r>   -14.0715     0.0000     0.0000 </r>
       <r>   -14.0052     0.0000     0.0000 </r>
       <r>   -13.9389     0.0000     0.0000 </r>
       <r>   -13.8726     0.0000     0.0000 </r>
       <r>   -13.8063     0.0000     0.0000 </r>
       <r>   -13.7400     0.0000     0.0000 </r>
       <r>   -13.6737     0.0003     0.0000 </r>
       <r>   -13.6074     0.2098     0.0139 </r>
       <r>   -13.5411     1.2419     0.0963 </r>
       <r>   -13.4748     0.1646     0.1072 </r>
       <r>   -13.4086     1.4960     0.2064 </r>
       <r>   -13.3423     0.8679     0.2639 </r>
       <r>   -13.2760     0.0043     0.2642 </r>
       <r>   -13.2097     2.4113     0.4240 </r>
       <r>   -13.1434     0.2581     0.4411 </r>
       <r>   -13.0771     1.0970     0.5139 </r>
       <r>   -13.0108     0.0016     0.5140 </r>
       <r>   -12.9445     1.2746     0.5985 </r>
       <r>   -12.8782     2.4897     0.7635 </r>
       <r>   -12.8119     0.0118     0.7643 </r>
       <r>   -12.7456     1.2292     0.8458 </r>
       <r>   -12.6793     0.0214     0.8472 </r>
       <r>   -12.6130     1.8746     0.9715 </r>
       <r>   -12.5467     2.0096     1.1047 </r>
       <r>   -12.4804     1.1437     1.1806 </r>
       <r>   -12.4141     0.5122     1.2145 </r>
       <r>   -12.3478     0.7448     1.2639 </r>
       <r>   -12.2815     0.2128     1.2780 </r>
       <r>   -12.2152     6.1708     1.6871 </r>
       <r>   -12.1489     0.5299     1.7222 </r>
       <r>   -12.0826     0.0088     1.7228 </r>
       <r>   -12.0163     1.2321     1.8045 </r>
       <r>   -11.9501     0.0400     1.8071 </r>
       <r>   -11.8838     2.4660     1.9706 </r>
       <r>   -11.8175     0.0240     1.9722 </r>
       <r>   -11.7512     0.0000     1.9722 </r>
       <r>   -11.6849     0.0000     1.9722 </r>
       <r>   -11.6186     0.0030     1.9724 </r>
       <r>   -11.5523     0.5211     2.0070 </r>
       <r>   -11.4860     0.3138     2.0278 </r>
       <r>   -11.4197     0.0000     2.0278 </r>
       <r>   -11.3534     0.0000     2.0278 </r>
       <r>   -11.2871     0.0000     2.0278 </r>
       <r>   -11.2208     1.3320     2.1161 </r>
       <r>   -11.1545     1.1837     2.1946 </r>
       <r>   -11.0882     1.1981     2.2740 </r>
       <r>   -11.0219     0.0575     2.2778 </r>
       <r>   -10.9556     1.7281     2.3924 </r>
       <r>   -10.8893     4.5602     2.6947 </r>
       <r>   -10.8230     0.6360     2.7368 </r>
       <r>   -10.7567     1.2329     2.8186 </r>
       <r>   -10.6904     0.0201     2.8199 </r>
       <r>   -10.6241     2.4383     2.9816 </r>
       <r>   -10.5578     2.1672     3.1252 </r>
       <r>   -10.4916     0.4178     3.1529 </r>
       <r>   -10.4253     1.2085     3.2331 </r>
       <r>   -10.3590     0.0626     3.2372 </r>
       <r>   -10.2927     2.7089     3.4168 </r>
       <r>   -10.2264     1.0456     3.4861 </r>
       <r>   -10.1601     0.7268     3.5343 </r>
       <r>   -10.0938     1.2254     3.6155 </r>
       <r>   -10.0275     1.8194     3.7362 </r>
       <r>    -9.9612     1.4075     3.8295 </r>
       <r>    -9.8949     1.6305     3.9376 </r>
       <r>    -9.8286     0.9411     3.9999 </r>
       <r>    -9.7623     0.0008     4.0000 </r>
       <r>    -9.6960     0.0000     4.0000 </r>
       <r>    -9.6297     0.0000     4.0000 </r>
       <r>    -9.5634     0.0000     4.0000 </r>
       <r>    -9.4971     0.0000     4.0000 </r>
       <r>    -9.4308     0.0000     4.0000 </r>
       <r>    -9.3645     0.0000     4.0000 </r>
       <r>    -9.2982     0.0000     4.0000 </r>
       <r>    -9.2319     0.0000     4.0000 </r>
       <r>    -9.1656     0.0000     4.0000 </r>
       <r>    -9.0993     0.0000     4.0000 </r>
       <r>    -9.0330     0.0000     4.0000 </r>
       <r>    -8.9668     0.0000     4.0000 </r>
       <r>    -8.9005     0.0000     4.0000 </r>
       <r>    -8.8342     0.0000     4.0000 </r>
       <r>    -8.7679     0.0000     4.0000 </r>
       <r>    -8.7016     0.0000     4.0000 </r>
       <r>    -8.6353     0.0000     4.0000 </r>
       <r>    -8.5690     0.0000     4.0000 </r>
       <r>    -8.5027     0.0000     4.0000 </r>
       <r>    -8.4364     0.0000     4.0000 </r>
       <r>    -8.3701     0.0000     4.0000 </r>
       <r>    -8.3038     0.0000     4.0000 </r>
       <r>    -8.2375     0.0000     4.0000 </r>
       <r>    -8.1712     0.0000     4.0000 </r>
       <r>    -8.1049     0.0000     4.0000 </r>
       <r>    -8.0386     0.0000     4.0000 </r>
       <r>    -7.9723     0.0000     4.0000 </r>
       <r>    -7.9060     0.0000     4.0000 </r>
       <r>    -7.8397     0.0000     4.0000 </r>
       <r>    -7.7734     0.0000     4.0000 </r>
       <r>    -7.7071     0.0000     4.0000 </r>
       <r>    -7.6408     0.0000     4.0000 </r>
       <r>    -7.5745     0.0000     4.0000 </r>
       <r>    -7.5083     0.0000     4.0000 </r>
       <r>    -7.4420     0.0000     4.0000 </r>
       <r>    -7.3757     0.0000     4.0000 </r>
       <r>    -7.3094     0.0000     4.0000 </r>
       <r>    -7.2431     0.0000     4.0000 </r>
       <r>    -7.1768     0.0000     4.0000 </r>
       <r>    -7.1105     0.0000     4.0000 </r>
       <r>    -7.0442     0.0000     4.0000 </r>
       <r>    -6.9779     0.0000     4.0000 </r>
       <r>    -6.9116     0.0000     4.0000 </r>
       <r>    -6.8453     0.0000     4.0000 </r>
       <r>    -6.7790     0.0000     4.0000 </r>
       <r>    -6.7127     0.0000     4.0000 </r>
       <r>    -6.6464     0.0000     4.0000 </r>
       <r>    -6.5801     0.0000     4.0000 </r>
       <r>    -6.5138     0.0000     4.0000 </r>
       <r>    -6.4475     0.0000     4.0000 </r>
       <r>    -6.3812     0.0000     4.0000 </r>
       <r>    -6.3149     0.0000     4.0000 </r>
       <r>    -6.2486     0.0000     4.0000 </r>
       <r>    -6.1823     0.0000     4.0000 </r>
       <r>    -6.1160     0.0000     4.0000 </r>
       <r>    -6.0498     0.0000     4.0000 </r>
       <r>    -5.9835     0.0000     4.0000 </r>
       <r>    -5.9172     0.0000     4.0000 </r>
       <r>    -5.8509     0.0000     4.0000 </r>
       <r>    -5.7846     0.0000     4.0000 </r>
       <r>    -5.7183     0.0000     4.0000 </r>
       <r>    -5.6520     0.0000     4.0000 </r>
       <r>    -5.5857     0.0000     4.0000 </r>
       <r>    -5.5194     0.0000     4.0000 </r>
       <r>    -5.4531     0.0000     4.0000 </r>
       <r>    -5.3868     0.0000     4.0000 </r>
       <r>    -5.3205     0.0000     4.0000 </r>
       <r>    -5.2542     0.0000     4.0000 </r>
       <r>    -5.1879     0.0000     4.0000 </r>
       <r>    -5.1216     0.0000     4.0000 </r>
       <r>    -5.0553     0.0000     4.0000 </r>
       <r>    -4.9890     0.0000     4.0000 </r>
       <r>    -4.9227     0.0000     4.0000 </r>
       <r>    -4.8564     0.2510     4.0166 </r>
       <r>    -4.7901     0.3861     4.0422 </r>
       <r>    -4.7238     2.3505     4.1981 </r>
       <r>    -4.6575     3.4948     4.4298 </r>
       <r>    -4.5913     5.4714     4.7925 </r>
       <r>    -4.5250     3.4656     5.0222 </r>
       <r>    -4.4587     0.9154     5.0829 </r>
       <r>    -4.3924     2.4070     5.2425 </r>
       <r>    -4.3261     2.4134     5.4025 </r>
       <r>    -4.2598     0.2866     5.4215 </r>
       <r>    -4.1935     1.8083     5.5414 </r>
       <r>    -4.1272     0.4252     5.5696 </r>
       <r>    -4.0609     1.1988     5.6490 </r>
       <r>    -3.9946     3.5913     5.8871 </r>
       <r>    -3.9283     5.3196     6.2398 </r>
       <r>    -3.8620     4.7694     6.5560 </r>
       <r>    -3.7957     1.2509     6.6389 </r>
       <r>    -3.7294     1.7557     6.7553 </r>
       <r>    -3.6631     3.2710     6.9721 </r>
       <r>    -3.5968     1.1813     7.0505 </r>
       <r>    -3.5305     0.0780     7.0556 </r>
       <r>    -3.4642     1.1851     7.1342 </r>
       <r>    -3.3979     2.8434     7.3227 </r>
       <r>    -3.3316     2.2554     7.4722 </r>
       <r>    -3.2653     0.1361     7.4812 </r>
       <r>    -3.1990     0.0737     7.4861 </r>
       <r>    -3.1328     0.3869     7.5118 </r>
       <r>    -3.0665     0.3602     7.5357 </r>
       <r>    -3.0002     3.5456     7.7707 </r>
       <r>    -2.9339     2.4103     7.9305 </r>
       <r>    -2.8676     1.1400     8.0061 </r>
       <r>    -2.8013     0.1344     8.0150 </r>
       <r>    -2.7350     3.2850     8.2328 </r>
       <r>    -2.6687     0.4775     8.2644 </r>
       <r>    -2.6024     2.6549     8.4404 </r>
       <r>    -2.5361     1.1277     8.5152 </r>
       <r>    -2.4698     1.9470     8.6443 </r>
       <r>    -2.4035     4.3766     8.9344 </r>
       <r>    -2.3372     1.8249     9.0554 </r>
       <r>    -2.2709     0.0023     9.0556 </r>
       <r>    -2.2046     0.0058     9.0559 </r>
       <r>    -2.1383     2.8173     9.2427 </r>
       <r>    -2.0720     2.7059     9.4221 </r>
       <r>    -2.0057     0.7560     9.4722 </r>
       <r>    -1.9394     0.0000     9.4722 </r>
       <r>    -1.8731     0.8362     9.5277 </r>
       <r>    -1.8068     2.9222     9.7214 </r>
       <r>    -1.7405     0.0127     9.7222 </r>
       <r>    -1.6742     0.0000     9.7222 </r>
       <r>    -1.6080     0.0781     9.7274 </r>
       <r>    -1.5417     2.4190     9.8878 </r>
       <r>    -1.4754     0.0174     9.8889 </r>
       <r>    -1.4091     0.3972     9.9153 </r>
       <r>    -1.3428     0.8626     9.9724 </r>
       <r>    -1.2765     0.4157    10.0000 </r>
       <r>    -1.2102     0.0000    10.0000 </r>
       <r>    -1.1439     0.0000    10.0000 </r>
       <r>    -1.0776     0.0000    10.0000 </r>
       <r>    -1.0113     0.0000    10.0000 </r>
       <r>    -0.9450     0.0000    10.0000 </r>
       <r>    -0.8787     0.0005    10.0000 </r>
       <r>    -0.8124     0.2026    10.0135 </r>
       <r>    -0.7461     0.0064    10.0139 </r>
       <r>    -0.6798     0.0597    10.0178 </r>
       <r>    -0.6135     1.4894    10.1166 </r>
       <r>    -0.5472     2.0638    10.2534 </r>
       <r>    -0.4809     1.4132    10.3471 </r>
       <r>    -0.4146     0.9257    10.4085 </r>
       <r>    -0.3483     1.8901    10.5338 </r>
       <r>    -0.2820     4.9800    10.8639 </r>
       <r>    -0.2157     2.8715    11.0543 </r>
       <r>    -0.1495     0.3648    11.0785 </r>
       <r>    -0.0832     1.3874    11.1704 </r>
       <r>    -0.0169     3.1040    11.3762 </r>
       <r>     0.0494     1.7188    11.4902 </r>
       <r>     0.1157     0.2764    11.5085 </r>
       <r>     0.1820     6.8963    11.9657 </r>
       <r>     0.2483     0.5173    12.0000 </r>
       <r>     0.3146     0.0000    12.0000 </r>
       <r>     0.3809     0.0460    12.0031 </r>
       <r>     0.4472     0.1635    12.0139 </r>
       <r>     0.5135     0.0001    12.0139 </r>
       <r>     0.5798     1.0464    12.0833 </r>
       <r>     0.6461     0.2110    12.0973 </r>
       <r>     0.7124     2.3201    12.2511 </r>
       <r>     0.7787     6.8003    12.7019 </r>
       <r>     0.8450     5.0532    13.0369 </r>
       <r>     0.9113     3.7641    13.2864 </r>
       <r>     0.9776     3.2244    13.5002 </r>
       <r>     1.0439     3.4157    13.7267 </r>
       <r>     1.1102     3.6924    13.9714 </r>
       <r>     1.1765     0.0117    13.9722 </r>
       <r>     1.2428     0.2997    13.9921 </r>
       <r>     1.3090     0.1193    14.0000 </r>
       <r>     1.3753     0.0100    14.0007 </r>
       <r>     1.4416     2.6655    14.1774 </r>
       <r>     1.5079     6.5652    14.6126 </r>
       <r>     1.5742     3.3255    14.8331 </r>
       <r>     1.6405     6.8612    15.2879 </r>
       <r>     1.7068     8.3911    15.8442 </r>
       <r>     1.7731     2.3491    16.0000 </r>
       <r>     1.8394     0.0003    16.0000 </r>
       <r>     1.9057     0.0000    16.0000 </r>
       <r>     1.9720     0.0000    16.0000 </r>
       <r>     2.0383     0.0000    16.0000 </r>
       <r>     2.1046     0.0258    16.0017 </r>
       <r>     2.1709     0.1837    16.0139 </r>
       <r>     2.2372     0.0928    16.0200 </r>
       <r>     2.3035     1.1635    16.0972 </r>
       <r>     2.3698     0.0008    16.0972 </r>
       <r>     2.4361     1.0078    16.1640 </r>
       <r>     2.5024     1.1558    16.2407 </r>
       <r>     2.5687     0.3503    16.2639 </r>
       <r>     2.6350     0.0000    16.2639 </r>
       <r>     2.7013     1.4555    16.3604 </r>
       <r>     2.7675     1.0588    16.4306 </r>
       <r>     2.8338     1.1036    16.5037 </r>
       <r>     2.9001     0.1532    16.5139 </r>
       <r>     2.9664     0.0000    16.5139 </r>
       <r>     3.0327     0.9071    16.5740 </r>
       <r>     3.0990     2.8418    16.7624 </r>
       <r>     3.1653     0.3861    16.7880 </r>
       <r>     3.2316     0.8931    16.8472 </r>
       <r>     3.2979     0.8757    16.9053 </r>
       <r>     3.3642     1.4474    17.0012 </r>
       <r>     3.4305     5.1177    17.3405 </r>
       <r>     3.4968     1.9864    17.4722 </r>
       <r>     3.5631     0.0001    17.4722 </r>
       <r>     3.6294     0.0986    17.4788 </r>
       <r>     3.6957     2.9149    17.6720 </r>
       <r>     3.7620     0.7575    17.7222 </r>
       <r>     3.8283     0.0000    17.7222 </r>
       <r>     3.8946     0.2239    17.7371 </r>
       <r>     3.9609     1.0330    17.8055 </r>
       <r>     4.0272     0.0001    17.8056 </r>
       <r>     4.0935     0.0000    17.8056 </r>
       <r>     4.1598     0.0821    17.8110 </r>
       <r>     4.2261     2.4263    17.9719 </r>
       <r>     4.2923     0.0056    17.9722 </r>
       <r>     4.3586     0.0000    17.9722 </r>
       <r>     4.4249     0.0185    17.9735 </r>
       <r>     4.4912     0.3999    18.0000 </r>
       <r>     4.5575     0.0006    18.0000 </r>
       <r>     4.6238     0.0000    18.0000 </r>
       <r>     4.6901     0.0000    18.0000 </r>
       <r>     4.7564     0.0000    18.0000 </r>
       <r>     4.8227     0.0000    18.0000 </r>
       <r>     4.8890     0.0000    18.0000 </r>
       <r>     4.9553     0.0000    18.0000 </r>
       <r>     5.0216     0.0000    18.0000 </r>
       <r>     5.0879     0.0000    18.0000 </r>
       <r>     5.1542     0.0000    18.0000 </r>
       <r>     5.2205     0.0000    18.0000 </r>
       <r>     5.2868     0.0000    18.0000 </r>
       <r>     5.3531     0.0000    18.0000 </r>
      </set>
      <set comment="spin 2">
       <r>   -14.5356     0.0000     0.0000 </r>
       <r>   -14.4693     0.0000     0.0000 </r>
       <r>   -14.4030     0.0000     0.0000 </r>
       <r>   -14.3367     0.0000     0.0000 </r>
       <r>   -14.2704     0.0000     0.0000 </r>
       <r>   -14.2041     0.0000     0.0000 </r>
       <r>   -14.1378     0.0000     0.0000 </r>
       <r>   -14.0715     0.0000     0.0000 </r>
       <r>   -14.0052     0.0000     0.0000 </r>
       <r>   -13.9389     0.0000     0.0000 </r>
       <r>   -13.8726     0.0000     0.0000 </r>
       <r>   -13.8063     0.0000     0.0000 </r>
       <r>   -13.7400     0.0000     0.0000 </r>
       <r>   -13.6737     0.0000     0.0000 </r>
       <r>   -13.6074     0.0000     0.0000 </r>
       <r>   -13.5411     0.0000     0.0000 </r>
       <r>   -13.4748     0.0000     0.0000 </r>
       <r>   -13.4086     0.0000     0.0000 </r>
       <r>   -13.3423     0.0000     0.0000 </r>
       <r>   -13.2760     0.0000     0.0000 </r>
       <r>   -13.2097     0.0000     0.0000 </r>
       <r>   -13.1434     0.0000     0.0000 </r>
       <r>   -13.0771     0.0000     0.0000 </r>
       <r>   -13.0108     0.0000     0.0000 </r>
       <r>   -12.9445     0.0000     0.0000 </r>
       <r>   -12.8782     0.0000     0.0000 </r>
       <r>   -12.8119     0.0000     0.0000 </r>
       <r>   -12.7456     0.0000     0.0000 </r>
       <r>   -12.6793     0.0000     0.0000 </r>
       <r>   -12.6130     0.0000     0.0000 </r>
       <r>   -12.5467     0.0000     0.0000 </r>
       <r>   -12.4804     0.0000     0.0000 </r>
       <r>   -12.4141     0.0000     0.0000 </r>
       <r>   -12.3478     0.0000     0.0000 </r>
       <r>   -12.2815     0.0000     0.0000 </r>
       <r>   -12.2152     0.0000     0.0000 </r>
       <r>   -12.1489 **********     0.0000 </r>
       <r>   -12.0826     0.0000     0.0000 </r>
       <r>   -12.0163     0.0000     0.0000 </r>
       <r>   -11.9501     0.0000     0.0000 </r>
       <r>   -11.8838     0.0000     0.0000 </r>
       <r>   -11.8175     0.0000     0.0000 </r>
       <r>   -11.7512     0.0000     0.0000 </r>
       <r>   -11.6849     0.0000     0.0000 </r>
       <r>   -11.6186     0.0000     0.0000 </r>
       <r>   -11.5523     0.0000     0.0000 </r>
       <r>   -11.4860     0.0000     0.0000 </r>
       <r>   -11.4197     0.0000     0.0000 </r>
       <r>   -11.3534     0.0000     0.0000 </r>
       <r>   -11.2871     0.0000     0.0000 </r>
       <r>   -11.2208     0.0000     0.0000 </r>
       <r>   -11.1545     0.0000     0.0000 </r>
       <r>   -11.0882     0.0000     0.0000 </r>
       <r>   -11.0219     0.0000     0.0000 </r>
       <r>   -10.9556     0.0000     0.0000 </r>
       <r>   -10.8893     0.0000     0.0000 </r>
       <r>   -10.8230     0.0000     0.0000 </r>
       <r>   -10.7567     0.0000     0.0000 </r>
       <r>   -10.6904     0.0000     0.0000 </r>
       <r>   -10.6241     0.0000     0.0000 </r>
       <r>   -10.5578     0.0000     0.0000 </r>
       <r>   -10.4916     0.0000     0.0000 </r>
       <r>   -10.4253     0.0000     0.0000 </r>
       <r>   -10.3590     0.0000     0.0000 </r>
       <r>   -10.2927     0.0000     0.0000 </r>
       <r>   -10.2264     0.0000     0.0000 </r>
       <r>   -10.1601     0.0000     0.0000 </r>
       <r>   -10.0938     0.0000     0.0000 </r>
       <r>   -10.0275     0.0000     0.0000 </r>
       <r>    -9.9612     0.0000     0.0000 </r>
       <r>    -9.8949     0.0000     0.0000 </r>
       <r>    -9.8286     0.0000     0.0000 </r>
       <r>    -9.7623     0.0000     0.0000 </r>
       <r>    -9.6960     0.0000     0.0000 </r>
       <r>    -9.6297     0.0000     0.0000 </r>
       <r>    -9.5634     0.0000     0.0000 </r>
       <r>    -9.4971     0.0000     0.0000 </r>
       <r>    -9.4308     0.0000     0.0000 </r>
       <r>    -9.3645     0.0000     0.0000 </r>
       <r>    -9.2982     0.0000     0.0000 </r>
       <r>    -9.2319     0.0000     0.0000 </r>
       <r>    -9.1656     0.0000     0.0000 </r>
       <r>    -9.0993     0.0000     0.0000 </r>
       <r>    -9.0330     0.0000     0.0000 </r>
       <r>    -8.9668     0.0000     0.0000 </r>
       <r>    -8.9005     0.0000     0.0000 </r>
       <r>    -8.8342     0.0000     0.0000 </r>
       <r>    -8.7679     0.0000     0.0000 </r>
       <r>    -8.7016     0.0000     0.0000 </r>
       <r>    -8.6353     0.0000     0.0000 </r>
       <r>    -8.5690     0.0000     0.0000 </r>
       <r>    -8.5027     0.0000     0.0000 </r>
       <r>    -8.4364     0.0000     0.0000 </r>
       <r>    -8.3701     0.0000     0.0000 </r>
       <r>    -8.3038     0.0000     0.0000 </r>
       <r>    -8.2375     0.0000     0.0000 </r>
       <r>    -8.1712     0.0000     0.0000 </r>
       <r>    -8.1049     0.0000     0.0000 </r>
       <r>    -8.0386     0.0000     0.0000 </r>
       <r>    -7.9723     0.0000     0.0000 </r>
       <r>    -7.9060     0.0000     0.0000 </r>
       <r>    -7.8397     0.0000     0.0000 </r>
       <r>    -7.7734     0.0000     0.0000 </r>
       <r>    -7.7071     0.0000     0.0000 </r>
       <r>    -7.6408     0.0000     0.0000 </r>
       <r>    -7.5745     0.0000     0.0000 </r>
       <r>    -7.5083     0.0000     0.0000 </r>
       <r>    -7.4420     0.0000     0.0000 </r>
       <r>    -7.3757     0.0000     0.0000 </r>
       <r>    -7.3094     0.0000     0.0000 </r>
       <r>    -7.2431     0.0000     0.0000 </r>
       <r>    -7.1768     0.0000     0.0000 </r>
       <r>    -7.1105     0.0000     0.0000 </r>
       <r>    -7.0442     0.0000     0.0000 </r>
       <r>    -6.9779     0.0000     0.0000 </r>
       <r>    -6.9116     0.0000     0.0000 </r>
       <r>    -6.8453     0.0000     0.0000 </r>
       <r>    -6.7790     0.0000     0.0000 </r>
       <r>    -6.7127     0.0000     0.0000 </r>
       <r>    -6.6464     0.0000     0.0000 </r>
       <r>    -6.5801     0.0000     0.0000 </r>
       <r>    -6.5138     0.0000     0.0000 </r>
       <r>    -6.4475     0.0000     0.0000 </r>
       <r>    -6.3812     0.0000     0.0000 </r>
       <r>    -6.3149     0.0000     0.0000 </r>
       <r>    -6.2486     0.0000     0.0000 </r>
       <r>    -6.1823     0.0000     0.0000 </r>
       <r>    -6.1160     0.0000     0.0000 </r>
       <r>    -6.0498     0.0000     0.0000 </r>
       <r>    -5.9835     0.0000     0.0000 </r>
       <r>    -5.9172     0.0000     0.0000 </r>
       <r>    -5.8509     0.0000     0.0000 </r>
       <r>    -5.7846     0.0000     0.0000 </r>
       <r>    -5.7183     0.0000     0.0000 </r>
       <r>    -5.6520     0.0000     0.0000 </r>
       <r>    -5.5857     0.0000     0.0000 </r>
       <r>    -5.5194     0.0000     0.0000 </r>
       <r>    -5.4531     0.0000     0.0000 </r>
       <r>    -5.3868     0.0000     0.0000 </r>
       <r>    -5.3205     0.0000     0.0000 </r>
       <r>    -5.2542     0.0000     0.0000 </r>
       <r>    -5.1879     0.0000     0.0000 </r>
       <r>    -5.1216     0.0000     0.0000 </r>
       <r>    -5.0553     0.0000     0.0000 </r>
       <r>    -4.9890     0.0000     0.0000 </r>
       <r>    -4.9227     0.0000     0.0000 </r>
       <r>    -4.8564     0.0000     0.0000 </r>
       <r>    -4.7901     0.0000     0.0000 </r>
       <r>    -4.7238     0.0000     0.0000 </r>
       <r>    -4.6575     0.0000     0.0000 </r>
       <r>    -4.5913     0.0000     0.0000 </r>
       <r>    -4.5250     0.0000     0.0000 </r>
       <r>    -4.4587     0.0000     0.0000 </r>
       <r>    -4.3924     0.0000     0.0000 </r>
       <r>    -4.3261     0.0000     0.0000 </r>
       <r>    -4.2598     0.0000     0.0000 </r>
       <r>    -4.1935     0.0000     0.0000 </r>
       <r>    -4.1272     0.0000     0.0000 </r>
       <r>    -4.0609     0.0000     0.0000 </r>
       <r>    -3.9946     0.0000     0.0000 </r>
       <r>    -3.9283     0.0000     0.0000 </r>
       <r>    -3.8620     0.0000     0.0000 </r>
       <r>    -3.7957     0.0000     0.0000 </r>
       <r>    -3.7294     0.0000     0.0000 </r>
       <r>    -3.6631 **********     0.0000 </r>
       <r>    -3.5968 **********     0.0000 </r>
       <r>    -3.5305 **********     0.0000 </r>
       <r>    -3.4642 **********     0.0000 </r>
       <r>    -3.3979 **********     0.0000 </r>
       <r>    -3.3316 **********     0.0000 </r>
       <r>    -3.2653 **********     0.0000 </r>
       <r>    -3.1990     0.0000     0.0000 </r>
       <r>    -3.1328     0.0000     0.0000 </r>
       <r>    -3.0665     0.0000     0.0000 </r>
       <r>    -3.0002     0.0000     0.0000 </r>
       <r>    -2.9339     0.0000     0.0000 </r>
       <r>    -2.8676     0.0000     0.0000 </r>
       <r>    -2.8013     0.0000     0.0000 </r>
       <r>    -2.7350     0.0000     0.0000 </r>
       <r>    -2.6687     0.0000     0.0000 </r>
       <r>    -2.6024     0.0000     0.0000 </r>
       <r>    -2.5361     0.0000     0.0000 </r>
       <r>    -2.4698     0.0000     0.0000 </r>
       <r>    -2.4035     0.0000     0.0000 </r>
       <r>    -2.3372     0.0000     0.0000 </r>
       <r>    -2.2709     0.0000     0.0000 </r>
       <r>    -2.2046     0.0000     0.0000 </r>
       <r>    -2.1383     0.0000     0.0000 </r>
       <r>    -2.0720     0.0000     0.0000 </r>
       <r>    -2.0057     0.0000     0.0000 </r>
       <r>    -1.9394     0.0000     0.0000 </r>
       <r>    -1.8731     0.0000     0.0000 </r>
       <r>    -1.8068     0.0000     0.0000 </r>
       <r>    -1.7405     0.0000     0.0000 </r>
       <r>    -1.6742     0.0000     0.0000 </r>
       <r>    -1.6080     0.0000     0.0000 </r>
       <r>    -1.5417     0.0000     0.0000 </r>
       <r>    -1.4754     0.0000     0.0000 </r>
       <r>    -1.4091     0.0000     0.0000 </r>
       <r>    -1.3428     0.0000     0.0000 </r>
       <r>    -1.2765     0.0000     0.0000 </r>
       <r>    -1.2102     0.0000     0.0000 </r>
       <r>    -1.1439     0.0000     0.0000 </r>
       <r>    -1.0776     0.0000     0.0000 </r>
       <r>    -1.0113     0.0000     0.0000 </r>
       <r>    -0.9450     0.0000     0.0000 </r>
       <r>    -0.8787     0.0000     0.0000 </r>
       <r>    -0.8124     0.0000     0.0000 </r>
       <r>    -0.7461     0.0000     0.0000 </r>
       <r>    -0.6798     0.0000     0.0000 </r>
       <r>    -0.6135     0.0000     0.0000 </r>
       <r>    -0.5472     0.0000     0.0000 </r>
       <r>    -0.4809     0.0000     0.0000 </r>
       <r>    -0.4146     0.0000     0.0000 </r>
       <r>    -0.3483     0.0000     0.0000 </r>
       <r>    -0.2820     0.0000     0.0000 </r>
       <r>    -0.2157     0.0000     0.0000 </r>
       <r>    -0.1495     0.0000     0.0000 </r>
       <r>    -0.0832     0.0000     0.0000 </r>
       <r>    -0.0169     0.0000     0.0000 </r>
       <r>     0.0494     0.0000     0.0000 </r>
       <r>     0.1157     0.0000     0.0000 </r>
       <r>     0.1820     0.0000     0.0000 </r>
       <r>     0.2483     0.0000     0.0000 </r>
       <r>     0.3146     0.0000     0.0000 </r>
       <r>     0.3809     0.0000     0.0000 </r>
       <r>     0.4472     0.0000     0.0000 </r>
       <r>     0.5135     0.0000     0.0000 </r>
       <r>     0.5798     0.0000     0.0000 </r>
       <r>     0.6461     0.0000     0.0000 </r>
       <r>     0.7124     0.0000     0.0000 </r>
       <r>     0.7787     0.0000     0.0000 </r>
       <r>     0.8450     0.0000     0.0000 </r>
       <r>     0.9113     0.0000     0.0000 </r>
       <r>     0.9776     0.0000     0.0000 </r>
       <r>     1.0439     0.0000     0.0000 </r>
       <r>     1.1102     0.0000     0.0000 </r>
       <r>     1.1765     0.0000     0.0000 </r>
       <r>     1.2428     0.0000     0.0000 </r>
       <r>     1.3090     0.0000     0.0000 </r>
       <r>     1.3753     0.0000     0.0000 </r>
       <r>     1.4416     0.0000     0.0000 </r>
       <r>     1.5079     0.0000     0.0000 </r>
       <r>     1.5742     0.0000     0.0000 </r>
       <r>     1.6405     0.0000     0.0000 </r>
       <r>     1.7068     0.0000     0.0000 </r>
       <r>     1.7731     0.0000     0.0000 </r>
       <r>     1.8394     0.0000     0.0000 </r>
       <r>     1.9057     0.0000     0.0000 </r>
       <r>     1.9720     0.0000     0.0000 </r>
       <r>     2.0383     0.0000     0.0000 </r>
       <r>     2.1046     0.0000     0.0000 </r>
       <r>     2.1709     0.0000     0.0000 </r>
       <r>     2.2372     0.0000     0.0000 </r>
       <r>     2.3035     0.0000     0.0000 </r>
       <r>     2.3698     0.0000     0.0000 </r>
       <r>     2.4361     0.0000     0.0000 </r>
       <r>     2.5024     0.0000     0.0000 </r>
       <r>     2.5687     0.0000     0.0000 </r>
       <r>     2.6350     0.0000     0.0000 </r>
       <r>     2.7013     0.0000     0.0000 </r>
       <r>     2.7675     0.0000     0.0000 </r>
       <r>     2.8338     0.0000     0.0000 </r>
       <r>     2.9001     0.0000     0.0000 </r>
       <r>     2.9664     0.0000     0.0000 </r>
       <r>     3.0327     0.0000     0.0000 </r>
       <r>     3.0990     0.0000     0.0000 </r>
       <r>     3.1653     0.0000     0.0000 </r>
       <r>     3.2316     0.0000     0.0000 </r>
       <r>     3.2979     0.0000     0.0000 </r>
       <r>     3.3642     0.0000     0.0000 </r>
       <r>     3.4305     0.0000     0.0000 </r>
       <r>     3.4968     0.0000     0.0000 </r>
       <r>     3.5631     0.0000     0.0000 </r>
       <r>     3.6294     0.0000     0.0000 </r>
       <r>     3.6957     0.0000     0.0000 </r>
       <r>     3.7620     0.0000     0.0000 </r>
       <r>     3.8283     0.0000     0.0000 </r>
       <r>     3.8946     0.0000     0.0000 </r>
       <r>     3.9609     0.0000     0.0000 </r>
       <r>     4.0272     0.0000     0.0000 </r>
       <r>     4.0935     0.0000     0.0000 </r>
       <r>     4.1598     0.0000     0.0000 </r>
       <r>     4.2261     0.0000     0.0000 </r>
       <r>     4.2923     0.0000     0.0000 </r>
       <r>     4.3586     0.0000     0.0000 </r>
       <r>     4.4249     0.0000     0.0000 </r>
       <r>     4.4912     0.0000     0.0000 </r>
       <r>     4.5575     0.0000     0.0000 </r>
       <r>     4.6238     0.0000     0.0000 </r>
       <r>     4.6901     0.0000     0.0000 </r>
       <r>     4.7564     0.0000     0.0000 </r>
       <r>     4.8227     0.0000     0.0000 </r>
       <r>     4.8890     0.0000     0.0000 </r>
       <r>     4.9553     0.0000     0.0000 </r>
       <r>     5.0216     0.0000     0.0000 </r>
       <r>     5.0879     0.0000     0.0000 </r>
       <r>     5.1542     0.0000     0.0000 </r>
       <r>     5.2205     0.0000     0.0000 </r>
       <r>     5.2868     0.0000     0.0000 </r>
       <r>     5.3531     0.0000     0.0000 </r>
      </set>
      <set comment="spin 3">
       <r>   -14.5356     0.0000     0.0000 </r>
       <r>   -14.4693     0.0000     0.0000 </r>
       <r>   -14.4030     0.0000     0.0000 </r>
       <r>   -14.3367     0.0000     0.0000 </r>
       <r>   -14.2704     0.0000     0.0000 </r>
       <r>   -14.2041     0.0000     0.0000 </r>
       <r>   -14.1378     0.0000     0.0000 </r>
       <r>   -14.0715     0.0000     0.0000 </r>
       <r>   -14.0052     0.0000     0.0000 </r>
       <r>   -13.9389     0.0000     0.0000 </r>
       <r>   -13.8726     0.0000     0.0000 </r>
       <r>   -13.8063     0.0000     0.0000 </r>
       <r>   -13.7400     0.0000     0.0000 </r>
       <r>   -13.6737     0.0000     0.0000 </r>
       <r>   -13.6074     0.0000     0.0000 </r>
       <r>   -13.5411     0.0000     0.0000 </r>
       <r>   -13.4748     0.0000     0.0000 </r>
       <r>   -13.4086     0.0000     0.0000 </r>
       <r>   -13.3423     0.0000     0.0000 </r>
       <r>   -13.2760     0.0000     0.0000 </r>
       <r>   -13.2097     0.0000     0.0000 </r>
       <r>   -13.1434     0.0000     0.0000 </r>
       <r>   -13.0771     0.0000     0.0000 </r>
       <r>   -13.0108     0.0000     0.0000 </r>
       <r>   -12.9445     0.0000     0.0000 </r>
       <r>   -12.8782     0.0000     0.0000 </r>
       <r>   -12.8119     0.0000     0.0000 </r>
       <r>   -12.7456     0.0000     0.0000 </r>
       <r>   -12.6793     0.0000     0.0000 </r>
       <r>   -12.6130     0.0000     0.0000 </r>
       <r>   -12.5467     0.0000     0.0000 </r>
       <r>   -12.4804     0.0000     0.0000 </r>
       <r>   -12.4141     0.0000     0.0000 </r>
       <r>   -12.3478     0.0000     0.0000 </r>
       <r>   -12.2815     0.0000     0.0000 </r>
       <r>   -12.2152     0.0000     0.0000 </r>
       <r>   -12.1489     0.0000     0.0000 </r>
       <r>   -12.0826     0.0000     0.0000 </r>
       <r>   -12.0163     0.0000     0.0000 </r>
       <r>   -11.9501     0.0000     0.0000 </r>
       <r>   -11.8838     0.0000     0.0000 </r>
       <r>   -11.8175     0.0000     0.0000 </r>
       <r>   -11.7512     0.0000     0.0000 </r>
       <r>   -11.6849     0.0000     0.0000 </r>
       <r>   -11.6186     0.0000     0.0000 </r>
       <r>   -11.5523     0.0000     0.0000 </r>
       <r>   -11.4860     0.0000     0.0000 </r>
       <r>   -11.4197     0.0000     0.0000 </r>
       <r>   -11.3534     0.0000     0.0000 </r>
       <r>   -11.2871     0.0000     0.0000 </r>
       <r>   -11.2208     0.0000     0.0000 </r>
       <r>   -11.1545     0.0000     0.0000 </r>
       <r>   -11.0882     0.0000     0.0000 </r>
       <r>   -11.0219     0.0000     0.0000 </r>
       <r>   -10.9556     0.0000     0.0000 </r>
       <r>   -10.8893 **********     0.0000 </r>
       <r>   -10.8230     0.0000     0.0000 </r>
       <r>   -10.7567     0.0000     0.0000 </r>
       <r>   -10.6904     0.0000     0.0000 </r>
       <r>   -10.6241     0.0000     0.0000 </r>
       <r>   -10.5578     0.0000     0.0000 </r>
       <r>   -10.4916     0.0000     0.0000 </r>
       <r>   -10.4253     0.0000     0.0000 </r>
       <r>   -10.3590     0.0000     0.0000 </r>
       <r>   -10.2927     0.0000     0.0000 </r>
       <r>   -10.2264     0.0000     0.0000 </r>
       <r>   -10.1601     0.0000     0.0000 </r>
       <r>   -10.0938     0.0000     0.0000 </r>
       <r>   -10.0275     0.0000     0.0000 </r>
       <r>    -9.9612     0.0000     0.0000 </r>
       <r>    -9.8949     0.0000     0.0000 </r>
       <r>    -9.8286     0.0000     0.0000 </r>
       <r>    -9.7623     0.0000     0.0000 </r>
       <r>    -9.6960     0.0000     0.0000 </r>
       <r>    -9.6297     0.0000     0.0000 </r>
       <r>    -9.5634     0.0000     0.0000 </r>
       <r>    -9.4971     0.0000     0.0000 </r>
       <r>    -9.4308     0.0000     0.0000 </r>
       <r>    -9.3645     0.0000     0.0000 </r>
       <r>    -9.2982     0.0000     0.0000 </r>
       <r>    -9.2319     0.0000     0.0000 </r>
       <r>    -9.1656     0.0000     0.0000 </r>
       <r>    -9.0993     0.0000     0.0000 </r>
       <r>    -9.0330     0.0000     0.0000 </r>
       <r>    -8.9668     0.0000     0.0000 </r>
       <r>    -8.9005     0.0000     0.0000 </r>
       <r>    -8.8342     0.0000     0.0000 </r>
       <r>    -8.7679     0.0000     0.0000 </r>
       <r>    -8.7016     0.0000     0.0000 </r>
       <r>    -8.6353     0.0000     0.0000 </r>
       <r>    -8.5690     0.0000     0.0000 </r>
       <r>    -8.5027     0.0000     0.0000 </r>
       <r>    -8.4364     0.0000     0.0000 </r>
       <r>    -8.3701     0.0000     0.0000 </r>
       <r>    -8.3038     0.0000     0.0000 </r>
       <r>    -8.2375     0.0000     0.0000 </r>
       <r>    -8.1712     0.0000     0.0000 </r>
       <r>    -8.1049     0.0000     0.0000 </r>
       <r>    -8.0386     0.0000     0.0000 </r>
       <r>    -7.9723     0.0000     0.0000 </r>
       <r>    -7.9060     0.0000     0.0000 </r>
       <r>    -7.8397     0.0000     0.0000 </r>
       <r>    -7.7734     0.0000     0.0000 </r>
       <r>    -7.7071     0.0000     0.0000 </r>
       <r>    -7.6408     0.0000     0.0000 </r>
       <r>    -7.5745     0.0000     0.0000 </r>
       <r>    -7.5083     0.0000     0.0000 </r>
       <r>    -7.4420     0.0000     0.0000 </r>
       <r>    -7.3757     0.0000     0.0000 </r>
       <r>    -7.3094     0.0000     0.0000 </r>
       <r>    -7.2431     0.0000     0.0000 </r>
       <r>    -7.1768     0.0000     0.0000 </r>
       <r>    -7.1105     0.0000     0.0000 </r>
       <r>    -7.0442     0.0000     0.0000 </r>
       <r>    -6.9779     0.0000     0.0000 </r>
       <r>    -6.9116     0.0000     0.0000 </r>
       <r>    -6.8453     0.0000     0.0000 </r>
       <r>    -6.7790     0.0000     0.0000 </r>
       <r>    -6.7127     0.0000     0.0000 </r>
       <r>    -6.6464     0.0000     0.0000 </r>
       <r>    -6.5801     0.0000     0.0000 </r>
       <r>    -6.5138     0.0000     0.0000 </r>
       <r>    -6.4475     0.0000     0.0000 </r>
       <r>    -6.3812     0.0000     0.0000 </r>
       <r>    -6.3149     0.0000     0.0000 </r>
       <r>    -6.2486     0.0000     0.0000 </r>
       <r>    -6.1823     0.0000     0.0000 </r>
       <r>    -6.1160     0.0000     0.0000 </r>
       <r>    -6.0498     0.0000     0.0000 </r>
       <r>    -5.9835     0.0000     0.0000 </r>
       <r>    -5.9172     0.0000     0.0000 </r>
       <r>    -5.8509     0.0000     0.0000 </r>
       <r>    -5.7846     0.0000     0.0000 </r>
       <r>    -5.7183     0.0000     0.0000 </r>
       <r>    -5.6520     0.0000     0.0000 </r>
       <r>    -5.5857     0.0000     0.0000 </r>
       <r>    -5.5194     0.0000     0.0000 </r>
       <r>    -5.4531     0.0000     0.0000 </r>
       <r>    -5.3868     0.0000     0.0000 </r>
       <r>    -5.3205     0.0000     0.0000 </r>
       <r>    -5.2542     0.0000     0.0000 </r>
       <r>    -5.1879     0.0000     0.0000 </r>
       <r>    -5.1216     0.0000     0.0000 </r>
       <r>    -5.0553     0.0000     0.0000 </r>
       <r>    -4.9890     0.0000     0.0000 </r>
       <r>    -4.9227     0.0000     0.0000 </r>
       <r>    -4.8564     0.0000     0.0000 </r>
       <r>    -4.7901     0.0000     0.0000 </r>
       <r>    -4.7238     0.0000     0.0000 </r>
       <r>    -4.6575     0.0000     0.0000 </r>
       <r>    -4.5913     0.0000     0.0000 </r>
       <r>    -4.5250     0.0000     0.0000 </r>
       <r>    -4.4587     0.0000     0.0000 </r>
       <r>    -4.3924     0.0000     0.0000 </r>
       <r>    -4.3261     0.0000     0.0000 </r>
       <r>    -4.2598     0.0000     0.0000 </r>
       <r>    -4.1935     0.0000     0.0000 </r>
       <r>    -4.1272     0.0000     0.0000 </r>
       <r>    -4.0609     0.0000     0.0000 </r>
       <r>    -3.9946     0.0000     0.0000 </r>
       <r>    -3.9283     0.0000     0.0000 </r>
       <r>    -3.8620     0.0000     0.0000 </r>
       <r>    -3.7957     0.0000     0.0000 </r>
       <r>    -3.7294     0.0000     0.0000 </r>
       <r>    -3.6631     0.0000     0.0000 </r>
       <r>    -3.5968     0.0000     0.0000 </r>
       <r>    -3.5305     0.0000     0.0000 </r>
       <r>    -3.4642     0.0000     0.0000 </r>
       <r>    -3.3979     0.0000     0.0000 </r>
       <r>    -3.3316     0.0000     0.0000 </r>
       <r>    -3.2653     0.0000     0.0000 </r>
       <r>    -3.1990     0.0000     0.0000 </r>
       <r>    -3.1328     0.0000     0.0000 </r>
       <r>    -3.0665     0.0000     0.0000 </r>
       <r>    -3.0002     0.0000     0.0000 </r>
       <r>    -2.9339     0.0000     0.0000 </r>
       <r>    -2.8676     0.0000     0.0000 </r>
       <r>    -2.8013     0.0000     0.0000 </r>
       <r>    -2.7350     0.0000     0.0000 </r>
       <r>    -2.6687     0.0000     0.0000 </r>
       <r>    -2.6024     0.0000     0.0000 </r>
       <r>    -2.5361     0.0000     0.0000 </r>
       <r>    -2.4698     0.0000     0.0000 </r>
       <r>    -2.4035 **********     0.0000 </r>
       <r>    -2.3372 **********     0.0000 </r>
       <r>    -2.2709 **********     0.0000 </r>
       <r>    -2.2046 **********     0.0000 </r>
       <r>    -2.1383 **********     0.0000 </r>
       <r>    -2.0720 **********     0.0000 </r>
       <r>    -2.0057     0.0000     0.0000 </r>
       <r>    -1.9394     0.0000     0.0000 </r>
       <r>    -1.8731     0.0000     0.0000 </r>
       <r>    -1.8068     0.0000     0.0000 </r>
       <r>    -1.7405     0.0000     0.0000 </r>
       <r>    -1.6742     0.0000     0.0000 </r>
       <r>    -1.6080     0.0000     0.0000 </r>
       <r>    -1.5417     0.0000     0.0000 </r>
       <r>    -1.4754     0.0000     0.0000 </r>
       <r>    -1.4091     0.0000     0.0000 </r>
       <r>    -1.3428     0.0000     0.0000 </r>
       <r>    -1.2765     0.0000     0.0000 </r>
       <r>    -1.2102     0.0000     0.0000 </r>
       <r>    -1.1439     0.0000     0.0000 </r>
       <r>    -1.0776     0.0000     0.0000 </r>
       <r>    -1.0113     0.0000     0.0000 </r>
       <r>    -0.9450     0.0000     0.0000 </r>
       <r>    -0.8787     0.0000     0.0000 </r>
       <r>    -0.8124     0.0000     0.0000 </r>
       <r>    -0.7461     0.0000     0.0000 </r>
       <r>    -0.6798     0.0000     0.0000 </r>
       <r>    -0.6135     0.0000     0.0000 </r>
       <r>    -0.5472     0.0000     0.0000 </r>
       <r>    -0.4809     0.0000     0.0000 </r>
       <r>    -0.4146     0.0000     0.0000 </r>
       <r>    -0.3483     0.0000     0.0000 </r>
       <r>    -0.2820     0.0000     0.0000 </r>
       <r>    -0.2157     0.0000     0.0000 </r>
       <r>    -0.1495     0.0000     0.0000 </r>
       <r>    -0.0832     0.0000     0.0000 </r>
       <r>    -0.0169     0.0000     0.0000 </r>
       <r>     0.0494     0.0000     0.0000 </r>
       <r>     0.1157     0.0000     0.0000 </r>
       <r>     0.1820     0.0000     0.0000 </r>
       <r>     0.2483     0.0000     0.0000 </r>
       <r>     0.3146     0.0000     0.0000 </r>
       <r>     0.3809     0.0000     0.0000 </r>
       <r>     0.4472     0.0000     0.0000 </r>
       <r>     0.5135     0.0000     0.0000 </r>
       <r>     0.5798     0.0000     0.0000 </r>
       <r>     0.6461     0.0000     0.0000 </r>
       <r>     0.7124     0.0000     0.0000 </r>
       <r>     0.7787     0.0000     0.0000 </r>
       <r>     0.8450     0.0000     0.0000 </r>
       <r>     0.9113     0.0000     0.0000 </r>
       <r>     0.9776     0.0000     0.0000 </r>
       <r>     1.0439     0.0000     0.0000 </r>
       <r>     1.1102     0.0000     0.0000 </r>
       <r>     1.1765     0.0000     0.0000 </r>
       <r>     1.2428     0.0000     0.0000 </r>
       <r>     1.3090     0.0000     0.0000 </r>
       <r>     1.3753     0.0000     0.0000 </r>
       <r>     1.4416     0.0000     0.0000 </r>
       <r>     1.5079     0.0000     0.0000 </r>
       <r>     1.5742     0.0000     0.0000 </r>
       <r>     1.6405     0.0000     0.0000 </r>
       <r>     1.7068     0.0000     0.0000 </r>
       <r>     1.7731     0.0000     0.0000 </r>
       <r>     1.8394     0.0000     0.0000 </r>
       <r>     1.9057     0.0000     0.0000 </r>
       <r>     1.9720     0.0000     0.0000 </r>
       <r>     2.0383     0.0000     0.0000 </r>
       <r>     2.1046     0.0000     0.0000 </r>
       <r>     2.1709     0.0000     0.0000 </r>
       <r>     2.2372     0.0000     0.0000 </r>
       <r>     2.3035     0.0000     0.0000 </r>
       <r>     2.3698     0.0000     0.0000 </r>
       <r>     2.4361     0.0000     0.0000 </r>
       <r>     2.5024     0.0000     0.0000 </r>
       <r>     2.5687     0.0000     0.0000 </r>
       <r>     2.6350     0.0000     0.0000 </r>
       <r>     2.7013     0.0000     0.0000 </r>
       <r>     2.7675     0.0000     0.0000 </r>
       <r>     2.8338     0.0000     0.0000 </r>
       <r>     2.9001     0.0000     0.0000 </r>
       <r>     2.9664     0.0000     0.0000 </r>
       <r>     3.0327     0.0000     0.0000 </r>
       <r>     3.0990     0.0000     0.0000 </r>
       <r>     3.1653     0.0000     0.0000 </r>
       <r>     3.2316     0.0000     0.0000 </r>
       <r>     3.2979     0.0000     0.0000 </r>
       <r>     3.3642     0.0000     0.0000 </r>
       <r>     3.4305     0.0000     0.0000 </r>
       <r>     3.4968     0.0000     0.0000 </r>
       <r>     3.5631     0.0000     0.0000 </r>
       <r>     3.6294     0.0000     0.0000 </r>
       <r>     3.6957     0.0000     0.0000 </r>
       <r>     3.7620     0.0000     0.0000 </r>
       <r>     3.8283     0.0000     0.0000 </r>
       <r>     3.8946     0.0000     0.0000 </r>
       <r>     3.9609     0.0000     0.0000 </r>
       <r>     4.0272     0.0000     0.0000 </r>
       <r>     4.0935     0.0000     0.0000 </r>
       <r>     4.1598     0.0000     0.0000 </r>
       <r>     4.2261     0.0000     0.0000 </r>
       <r>     4.2923     0.0000     0.0000 </r>
       <r>     4.3586     0.0000     0.0000 </r>
       <r>     4.4249     0.0000     0.0000 </r>
       <r>     4.4912     0.0000     0.0000 </r>
       <r>     4.5575     0.0000     0.0000 </r>
       <r>     4.6238     0.0000     0.0000 </r>
       <r>     4.6901     0.0000     0.0000 </r>
       <r>     4.7564     0.0000     0.0000 </r>
       <r>     4.8227     0.0000     0.0000 </r>
       <r>     4.8890     0.0000     0.0000 </r>
       <r>     4.9553     0.0000     0.0000 </r>
       <r>     5.0216     0.0000     0.0000 </r>
       <r>     5.0879     0.0000     0.0000 </r>
       <r>     5.1542     0.0000     0.0000 </r>
       <r>     5.2205     0.0000     0.0000 </r>
       <r>     5.2868     0.0000     0.0000 </r>
       <r>     5.3531     0.0000     0.0000 </r>
      </set>
      <set comment="spin 4">
       <r>   -14.5356     0.0000     0.0000 </r>
       <r>   -14.4693     0.0000     0.0000 </r>
       <r>   -14.4030     0.0000     0.0000 </r>
       <r>   -14.3367     0.0000     0.0000 </r>
       <r>   -14.2704     0.0000     0.0000 </r>
       <r>   -14.2041     0.0000     0.0000 </r>
       <r>   -14.1378     0.0000     0.0000 </r>
       <r>   -14.0715     0.0000     0.0000 </r>
       <r>   -14.0052     0.0000     0.0000 </r>
       <r>   -13.9389     0.0000     0.0000 </r>
       <r>   -13.8726     0.0000     0.0000 </r>
       <r>   -13.8063     0.0000     0.0000 </r>
       <r>   -13.7400     0.0000     0.0000 </r>
       <r>   -13.6737     0.0000     0.0000 </r>
       <r>   -13.6074     0.0000     0.0000 </r>
       <r>   -13.5411     0.0000     0.0000 </r>
       <r>   -13.4748     0.0000     0.0000 </r>
       <r>   -13.4086     0.0000     0.0000 </r>
       <r>   -13.3423     0.0000     0.0000 </r>
       <r>   -13.2760     0.0000     0.0000 </r>
       <r>   -13.2097     0.0000     0.0000 </r>
       <r>   -13.1434     0.0000     0.0000 </r>
       <r>   -13.0771     0.0000     0.0000 </r>
       <r>   -13.0108     0.0000     0.0000 </r>
       <r>   -12.9445     0.0000     0.0000 </r>
       <r>   -12.8782     0.0000     0.0000 </r>
       <r>   -12.8119     0.0000     0.0000 </r>
       <r>   -12.7456     0.0000     0.0000 </r>
       <r>   -12.6793     0.0000     0.0000 </r>
       <r>   -12.6130     0.0000     0.0000 </r>
       <r>   -12.5467     0.0000     0.0000 </r>
       <r>   -12.4804     0.0000     0.0000 </r>
       <r>   -12.4141     0.0000     0.0000 </r>
       <r>   -12.3478     0.0000     0.0000 </r>
       <r>   -12.2815     0.0000     0.0000 </r>
       <r>   -12.2152     0.0000     0.0000 </r>
       <r>   -12.1489     0.0000     0.0000 </r>
       <r>   -12.0826     0.0000     0.0000 </r>
       <r>   -12.0163     0.0000     0.0000 </r>
       <r>   -11.9501     0.0000     0.0000 </r>
       <r>   -11.8838     0.0000     0.0000 </r>
       <r>   -11.8175     0.0000     0.0000 </r>
       <r>   -11.7512     0.0000     0.0000 </r>
       <r>   -11.6849     0.0000     0.0000 </r>
       <r>   -11.6186     0.0000     0.0000 </r>
       <r>   -11.5523     0.0000     0.0000 </r>
       <r>   -11.4860     0.0000     0.0000 </r>
       <r>   -11.4197     0.0000     0.0000 </r>
       <r>   -11.3534     0.0000     0.0000 </r>
       <r>   -11.2871     0.0000     0.0000 </r>
       <r>   -11.2208     0.0000     0.0000 </r>
       <r>   -11.1545     0.0000     0.0000 </r>
       <r>   -11.0882     0.0000     0.0000 </r>
       <r>   -11.0219     0.0000     0.0000 </r>
       <r>   -10.9556     0.0000     0.0000 </r>
       <r>   -10.8893     0.0000     0.0000 </r>
       <r>   -10.8230     0.0000     0.0000 </r>
       <r>   -10.7567     0.0000     0.0000 </r>
       <r>   -10.6904     0.0000     0.0000 </r>
       <r>   -10.6241     0.0000     0.0000 </r>
       <r>   -10.5578     0.0000     0.0000 </r>
       <r>   -10.4916     0.0000     0.0000 </r>
       <r>   -10.4253     0.0000     0.0000 </r>
       <r>   -10.3590     0.0000     0.0000 </r>
       <r>   -10.2927     0.0000     0.0000 </r>
       <r>   -10.2264     0.0000     0.0000 </r>
       <r>   -10.1601     0.0000     0.0000 </r>
       <r>   -10.0938     0.0000     0.0000 </r>
       <r>   -10.0275     0.0000     0.0000 </r>
       <r>    -9.9612     0.0000     0.0000 </r>
       <r>    -9.8949     0.0000     0.0000 </r>
       <r>    -9.8286     0.0000     0.0000 </r>
       <r>    -9.7623     0.0000     0.0000 </r>
       <r>    -9.6960     0.0000     0.0000 </r>
       <r>    -9.6297 **********     0.0000 </r>
       <r>    -9.5634     0.0000     0.0000 </r>
       <r>    -9.4971     0.0000     0.0000 </r>
       <r>    -9.4308     0.0000     0.0000 </r>
       <r>    -9.3645     0.0000     0.0000 </r>
       <r>    -9.2982     0.0000     0.0000 </r>
       <r>    -9.2319     0.0000     0.0000 </r>
       <r>    -9.1656     0.0000     0.0000 </r>
       <r>    -9.0993     0.0000     0.0000 </r>
       <r>    -9.0330     0.0000     0.0000 </r>
       <r>    -8.9668     0.0000     0.0000 </r>
       <r>    -8.9005     0.0000     0.0000 </r>
       <r>    -8.8342     0.0000     0.0000 </r>
       <r>    -8.7679     0.0000     0.0000 </r>
       <r>    -8.7016     0.0000     0.0000 </r>
       <r>    -8.6353     0.0000     0.0000 </r>
       <r>    -8.5690     0.0000     0.0000 </r>
       <r>    -8.5027     0.0000     0.0000 </r>
       <r>    -8.4364     0.0000     0.0000 </r>
       <r>    -8.3701     0.0000     0.0000 </r>
       <r>    -8.3038     0.0000     0.0000 </r>
       <r>    -8.2375     0.0000     0.0000 </r>
       <r>    -8.1712     0.0000     0.0000 </r>
       <r>    -8.1049     0.0000     0.0000 </r>
       <r>    -8.0386     0.0000     0.0000 </r>
       <r>    -7.9723     0.0000     0.0000 </r>
       <r>    -7.9060     0.0000     0.0000 </r>
       <r>    -7.8397     0.0000     0.0000 </r>
       <r>    -7.7734     0.0000     0.0000 </r>
       <r>    -7.7071     0.0000     0.0000 </r>
       <r>    -7.6408     0.0000     0.0000 </r>
       <r>    -7.5745     0.0000     0.0000 </r>
       <r>    -7.5083     0.0000     0.0000 </r>
       <r>    -7.4420     0.0000     0.0000 </r>
       <r>    -7.3757     0.0000     0.0000 </r>
       <r>    -7.3094     0.0000     0.0000 </r>
       <r>    -7.2431     0.0000     0.0000 </r>
       <r>    -7.1768     0.0000     0.0000 </r>
       <r>    -7.1105     0.0000     0.0000 </r>
       <r>    -7.0442     0.0000     0.0000 </r>
       <r>    -6.9779     0.0000     0.0000 </r>
       <r>    -6.9116     0.0000     0.0000 </r>
       <r>    -6.8453     0.0000     0.0000 </r>
       <r>    -6.7790     0.0000     0.0000 </r>
       <r>    -6.7127     0.0000     0.0000 </r>
       <r>    -6.6464     0.0000     0.0000 </r>
       <r>    -6.5801     0.0000     0.0000 </r>
       <r>    -6.5138     0.0000     0.0000 </r>
       <r>    -6.4475     0.0000     0.0000 </r>
       <r>    -6.3812     0.0000     0.0000 </r>
       <r>    -6.3149     0.0000     0.0000 </r>
       <r>    -6.2486     0.0000     0.0000 </r>
       <r>    -6.1823     0.0000     0.0000 </r>
       <r>    -6.1160     0.0000     0.0000 </r>
       <r>    -6.0498     0.0000     0.0000 </r>
       <r>    -5.9835     0.0000     0.0000 </r>
       <r>    -5.9172     0.0000     0.0000 </r>
       <r>    -5.8509     0.0000     0.0000 </r>
       <r>    -5.7846     0.0000     0.0000 </r>
       <r>    -5.7183     0.0000     0.0000 </r>
       <r>    -5.6520     0.0000     0.0000 </r>
       <r>    -5.5857     0.0000     0.0000 </r>
       <r>    -5.5194     0.0000     0.0000 </r>
       <r>    -5.4531     0.0000     0.0000 </r>
       <r>    -5.3868     0.0000     0.0000 </r>
       <r>    -5.3205     0.0000     0.0000 </r>
       <r>    -5.2542     0.0000     0.0000 </r>
       <r>    -5.1879     0.0000     0.0000 </r>
       <r>    -5.1216     0.0000     0.0000 </r>
       <r>    -5.0553     0.0000     0.0000 </r>
       <r>    -4.9890     0.0000     0.0000 </r>
       <r>    -4.9227     0.0000     0.0000 </r>
       <r>    -4.8564     0.0000     0.0000 </r>
       <r>    -4.7901     0.0000     0.0000 </r>
       <r>    -4.7238     0.0000     0.0000 </r>
       <r>    -4.6575     0.0000     0.0000 </r>
       <r>    -4.5913     0.0000     0.0000 </r>
       <r>    -4.5250     0.0000     0.0000 </r>
       <r>    -4.4587     0.0000     0.0000 </r>
       <r>    -4.3924     0.0000     0.0000 </r>
       <r>    -4.3261     0.0000     0.0000 </r>
       <r>    -4.2598     0.0000     0.0000 </r>
       <r>    -4.1935     0.0000     0.0000 </r>
       <r>    -4.1272     0.0000     0.0000 </r>
       <r>    -4.0609     0.0000     0.0000 </r>
       <r>    -3.9946     0.0000     0.0000 </r>
       <r>    -3.9283     0.0000     0.0000 </r>
       <r>    -3.8620     0.0000     0.0000 </r>
       <r>    -3.7957     0.0000     0.0000 </r>
       <r>    -3.7294     0.0000     0.0000 </r>
       <r>    -3.6631     0.0000     0.0000 </r>
       <r>    -3.5968     0.0000     0.0000 </r>
       <r>    -3.5305     0.0000     0.0000 </r>
       <r>    -3.4642     0.0000     0.0000 </r>
       <r>    -3.3979     0.0000     0.0000 </r>
       <r>    -3.3316     0.0000     0.0000 </r>
       <r>    -3.2653     0.0000     0.0000 </r>
       <r>    -3.1990     0.0000     0.0000 </r>
       <r>    -3.1328     0.0000     0.0000 </r>
       <r>    -3.0665     0.0000     0.0000 </r>
       <r>    -3.0002     0.0000     0.0000 </r>
       <r>    -2.9339     0.0000     0.0000 </r>
       <r>    -2.8676     0.0000     0.0000 </r>
       <r>    -2.8013     0.0000     0.0000 </r>
       <r>    -2.7350     0.0000     0.0000 </r>
       <r>    -2.6687     0.0000     0.0000 </r>
       <r>    -2.6024     0.0000     0.0000 </r>
       <r>    -2.5361     0.0000     0.0000 </r>
       <r>    -2.4698     0.0000     0.0000 </r>
       <r>    -2.4035     0.0000     0.0000 </r>
       <r>    -2.3372     0.0000     0.0000 </r>
       <r>    -2.2709     0.0000     0.0000 </r>
       <r>    -2.2046     0.0000     0.0000 </r>
       <r>    -2.1383     0.0000     0.0000 </r>
       <r>    -2.0720     0.0000     0.0000 </r>
       <r>    -2.0057     0.0000     0.0000 </r>
       <r>    -1.9394     0.0000     0.0000 </r>
       <r>    -1.8731     0.0000     0.0000 </r>
       <r>    -1.8068     0.0000     0.0000 </r>
       <r>    -1.7405     0.0000     0.0000 </r>
       <r>    -1.6742     0.0000     0.0000 </r>
       <r>    -1.6080     0.0000     0.0000 </r>
       <r>    -1.5417     0.0000     0.0000 </r>
       <r>    -1.4754     0.0000     0.0000 </r>
       <r>    -1.4091     0.0000     0.0000 </r>
       <r>    -1.3428     0.0000     0.0000 </r>
       <r>    -1.2765     0.0000     0.0000 </r>
       <r>    -1.2102     0.0000     0.0000 </r>
       <r>    -1.1439 **********     0.0000 </r>
       <r>    -1.0776 **********     0.0000 </r>
       <r>    -1.0113 **********     0.0000 </r>
       <r>    -0.9450 **********     0.0000 </r>
       <r>    -0.8787 **********     0.0000 </r>
       <r>    -0.8124 **********     0.0000 </r>
       <r>    -0.7461 **********     0.0000 </r>
       <r>    -0.6798     0.0000     0.0000 </r>
       <r>    -0.6135     0.0000     0.0000 </r>
       <r>    -0.5472     0.0000     0.0000 </r>
       <r>    -0.4809     0.0000     0.0000 </r>
       <r>    -0.4146     0.0000     0.0000 </r>
       <r>    -0.3483     0.0000     0.0000 </r>
       <r>    -0.2820     0.0000     0.0000 </r>
       <r>    -0.2157     0.0000     0.0000 </r>
       <r>    -0.1495     0.0000     0.0000 </r>
       <r>    -0.0832     0.0000     0.0000 </r>
       <r>    -0.0169     0.0000     0.0000 </r>
       <r>     0.0494     0.0000     0.0000 </r>
       <r>     0.1157     0.0000     0.0000 </r>
       <r>     0.1820     0.0000     0.0000 </r>
       <r>     0.2483     0.0000     0.0000 </r>
       <r>     0.3146     0.0000     0.0000 </r>
       <r>     0.3809     0.0000     0.0000 </r>
       <r>     0.4472     0.0000     0.0000 </r>
       <r>     0.5135     0.0000     0.0000 </r>
       <r>     0.5798     0.0000     0.0000 </r>
       <r>     0.6461     0.0000     0.0000 </r>
       <r>     0.7124     0.0000     0.0000 </r>
       <r>     0.7787     0.0000     0.0000 </r>
       <r>     0.8450     0.0000     0.0000 </r>
       <r>     0.9113     0.0000     0.0000 </r>
       <r>     0.9776     0.0000     0.0000 </r>
       <r>     1.0439     0.0000     0.0000 </r>
       <r>     1.1102     0.0000     0.0000 </r>
       <r>     1.1765     0.0000     0.0000 </r>
       <r>     1.2428     0.0000     0.0000 </r>
       <r>     1.3090     0.0000     0.0000 </r>
       <r>     1.3753     0.0000     0.0000 </r>
       <r>     1.4416     0.0000     0.0000 </r>
       <r>     1.5079     0.0000     0.0000 </r>
       <r>     1.5742     0.0000     0.0000 </r>
       <r>     1.6405     0.0000     0.0000 </r>
       <r>     1.7068     0.0000     0.0000 </r>
       <r>     1.7731     0.0000     0.0000 </r>
       <r>     1.8394     0.0000     0.0000 </r>
       <r>     1.9057     0.0000     0.0000 </r>
       <r>     1.9720     0.0000     0.0000 </r>
       <r>     2.0383     0.0000     0.0000 </r>
       <r>     2.1046     0.0000     0.0000 </r>
       <r>     2.1709     0.0000     0.0000 </r>
       <r>     2.2372     0.0000     0.0000 </r>
       <r>     2.3035     0.0000     0.0000 </r>
       <r>     2.3698     0.0000     0.0000 </r>
       <r>     2.4361     0.0000     0.0000 </r>
       <r>     2.5024     0.0000     0.0000 </r>
       <r>     2.5687     0.0000     0.0000 </r>
       <r>     2.6350     0.0000     0.0000 </r>
       <r>     2.7013     0.0000     0.0000 </r>
       <r>     2.7675     0.0000     0.0000 </r>
       <r>     2.8338     0.0000     0.0000 </r>
       <r>     2.9001     0.0000     0.0000 </r>
       <r>     2.9664     0.0000     0.0000 </r>
       <r>     3.0327     0.0000     0.0000 </r>
       <r>     3.0990     0.0000     0.0000 </r>
       <r>     3.1653     0.0000     0.0000 </r>
       <r>     3.2316     0.0000     0.0000 </r>
       <r>     3.2979     0.0000     0.0000 </r>
       <r>     3.3642     0.0000     0.0000 </r>
       <r>     3.4305     0.0000     0.0000 </r>
       <r>     3.4968     0.0000     0.0000 </r>
       <r>     3.5631     0.0000     0.0000 </r>
       <r>     3.6294     0.0000     0.0000 </r>
       <r>     3.6957     0.0000     0.0000 </r>
       <r>     3.7620     0.0000     0.0000 </r>
       <r>     3.8283     0.0000     0.0000 </r>
       <r>     3.8946     0.0000     0.0000 </r>
       <r>     3.9609     0.0000     0.0000 </r>
       <r>     4.0272     0.0000     0.0000 </r>
       <r>     4.0935     0.0000     0.0000 </r>
       <r>     4.1598     0.0000     0.0000 </r>
       <r>     4.2261     0.0000     0.0000 </r>
       <r>     4.2923     0.0000     0.0000 </r>
       <r>     4.3586     0.0000     0.0000 </r>
       <r>     4.4249     0.0000     0.0000 </r>
       <r>     4.4912     0.0000     0.0000 </r>
       <r>     4.5575     0.0000     0.0000 </r>
       <r>     4.6238     0.0000     0.0000 </r>
       <r>     4.6901     0.0000     0.0000 </r>
       <r>     4.7564     0.0000     0.0000 </r>
       <r>     4.8227     0.0000     0.0000 </r>
       <r>     4.8890     0.0000     0.0000 </r>
       <r>     4.9553     0.0000     0.0000 </r>
       <r>     5.0216     0.0000     0.0000 </r>
       <r>     5.0879     0.0000     0.0000 </r>
       <r>     5.1542     0.0000     0.0000 </r>
       <r>     5.2205     0.0000     0.0000 </r>
       <r>     5.2868     0.0000     0.0000 </r>
       <r>     5.3531     0.0000     0.0000 </r>
      </set>
     </set>
    </array>
   </total>
  </dos>
 </calculation>
 <structure name="finalpos" >
  <crystal>
   <varray name="basis" >
    <v>       4.38884216       0.00000000       0.00000000 </v>
    <v>       2.19442108       3.80084880       0.00000000 </v>
    <v>       0.00000000       0.00000000      15.00000000 </v>
   </varray>
   <i name="volume">    250.21988210 </i>
   <varray name="rec_basis" >
    <v>       0.22785053      -0.13154956       0.00000000 </v>
    <v>       0.00000000       0.26309913       0.00000000 </v>
    <v>       0.00000000       0.00000000       0.06666667 </v>
   </varray>
  </crystal>
  <varray name="positions" >
   <v>       0.16666667       0.16666667       0.05796187 </v>
   <v>       0.83333333       0.83333333       0.94203813 </v>
  </varray>
  <varray name="selective"  type="logical" >
   <v type="logical" >  F  F  T </v>
   <v type="logical" >  F  F  T </v>
  </varray>
  <nose>
   <v>      -3.00000000       0.00000000       0.00010000       0.00010000 </v>
  </nose>
 </structure>
</modeling>
