   2   2   0   0
  0.1251099E+03  0.4388842E-09  0.4388842E-09  0.1500000E-08  0.5000000E-15
  1.000000000000000E-004
  CAR 
 MoTe2 Hyun-Jung Kim.                    
      5.35307446    -14.53557676  301     -1.25990207      1.00000000
    -14.536  0.0000E+00  0.0000E+00
    -14.469  0.0000E+00  0.0000E+00
    -14.403  0.0000E+00  0.0000E+00
    -14.337  0.0000E+00  0.0000E+00
    -14.270  0.0000E+00  0.0000E+00
    -14.204  0.0000E+00  0.0000E+00
    -14.138  0.0000E+00  0.0000E+00
    -14.072  0.0000E+00  0.0000E+00
    -14.005  0.0000E+00  0.0000E+00
    -13.939  0.0000E+00  0.0000E+00
    -13.873  0.0000E+00  0.0000E+00
    -13.806  0.0000E+00  0.0000E+00
    -13.740  0.1791E-14  0.1187E-15
    -13.674  0.2988E-03  0.1981E-04
    -13.607  0.2098E+00  0.1393E-01
    -13.541  0.1242E+01  0.9626E-01
    -13.475  0.1646E+00  0.1072E+00
    -13.409  0.1496E+01  0.2064E+00
    -13.342  0.8679E+00  0.2639E+00
    -13.276  0.4319E-02  0.2642E+00
    -13.210  0.2411E+01  0.4240E+00
    -13.143  0.2581E+00  0.4411E+00
    -13.077  0.1097E+01  0.5139E+00
    -13.011  0.1605E-02  0.5140E+00
    -12.944  0.1275E+01  0.5985E+00
    -12.878  0.2490E+01  0.7635E+00
    -12.812  0.1177E-01  0.7643E+00
    -12.746  0.1229E+01  0.8458E+00
    -12.679  0.2140E-01  0.8472E+00
    -12.613  0.1875E+01  0.9715E+00
    -12.547  0.2010E+01  0.1105E+01
    -12.480  0.1144E+01  0.1181E+01
    -12.414  0.5122E+00  0.1215E+01
    -12.348  0.7448E+00  0.1264E+01
    -12.282  0.2128E+00  0.1278E+01
    -12.215  0.6171E+01  0.1687E+01
    -12.149  0.5299E+00  0.1722E+01
    -12.083  0.8837E-02  0.1723E+01
    -12.016  0.1232E+01  0.1804E+01
    -11.950  0.4004E-01  0.1807E+01
    -11.884  0.2466E+01  0.1971E+01
    -11.817  0.2403E-01  0.1972E+01
    -11.751  0.0000E+00  0.1972E+01
    -11.685  0.2062E-12  0.1972E+01
    -11.619  0.3036E-02  0.1972E+01
    -11.552  0.5211E+00  0.2007E+01
    -11.486  0.3138E+00  0.2028E+01
    -11.420  0.1050E-04  0.2028E+01
    -11.353  0.0000E+00  0.2028E+01
    -11.287  0.4990E-05  0.2028E+01
    -11.221  0.1332E+01  0.2116E+01
    -11.155  0.1184E+01  0.2195E+01
    -11.088  0.1198E+01  0.2274E+01
    -11.022  0.5748E-01  0.2278E+01
    -10.956  0.1728E+01  0.2392E+01
    -10.889  0.4560E+01  0.2695E+01
    -10.823  0.6360E+00  0.2737E+01
    -10.757  0.1233E+01  0.2819E+01
    -10.690  0.2007E-01  0.2820E+01
    -10.624  0.2438E+01  0.2982E+01
    -10.558  0.2167E+01  0.3125E+01
    -10.492  0.4178E+00  0.3153E+01
    -10.425  0.1209E+01  0.3233E+01
    -10.359  0.6257E-01  0.3237E+01
    -10.293  0.2709E+01  0.3417E+01
    -10.226  0.1046E+01  0.3486E+01
    -10.160  0.7268E+00  0.3534E+01
    -10.094  0.1225E+01  0.3616E+01
    -10.027  0.1819E+01  0.3736E+01
     -9.961  0.1407E+01  0.3829E+01
     -9.895  0.1630E+01  0.3938E+01
     -9.829  0.9411E+00  0.4000E+01
     -9.762  0.8183E-03  0.4000E+01
     -9.696  0.0000E+00  0.4000E+01
     -9.630  0.0000E+00  0.4000E+01
     -9.563  0.0000E+00  0.4000E+01
     -9.497  0.0000E+00  0.4000E+01
     -9.431  0.0000E+00  0.4000E+01
     -9.365  0.0000E+00  0.4000E+01
     -9.298  0.0000E+00  0.4000E+01
     -9.232  0.0000E+00  0.4000E+01
     -9.166  0.0000E+00  0.4000E+01
     -9.099  0.0000E+00  0.4000E+01
     -9.033  0.0000E+00  0.4000E+01
     -8.967  0.0000E+00  0.4000E+01
     -8.900  0.0000E+00  0.4000E+01
     -8.834  0.0000E+00  0.4000E+01
     -8.768  0.0000E+00  0.4000E+01
     -8.702  0.0000E+00  0.4000E+01
     -8.635  0.0000E+00  0.4000E+01
     -8.569  0.0000E+00  0.4000E+01
     -8.503  0.0000E+00  0.4000E+01
     -8.436  0.0000E+00  0.4000E+01
     -8.370  0.0000E+00  0.4000E+01
     -8.304  0.0000E+00  0.4000E+01
     -8.238  0.0000E+00  0.4000E+01
     -8.171  0.0000E+00  0.4000E+01
     -8.105  0.0000E+00  0.4000E+01
     -8.039  0.0000E+00  0.4000E+01
     -7.972  0.0000E+00  0.4000E+01
     -7.906  0.0000E+00  0.4000E+01
     -7.840  0.0000E+00  0.4000E+01
     -7.773  0.0000E+00  0.4000E+01
     -7.707  0.0000E+00  0.4000E+01
     -7.641  0.0000E+00  0.4000E+01
     -7.575  0.0000E+00  0.4000E+01
     -7.508  0.0000E+00  0.4000E+01
     -7.442  0.0000E+00  0.4000E+01
     -7.376  0.0000E+00  0.4000E+01
     -7.309  0.0000E+00  0.4000E+01
     -7.243  0.0000E+00  0.4000E+01
     -7.177  0.0000E+00  0.4000E+01
     -7.110  0.0000E+00  0.4000E+01
     -7.044  0.0000E+00  0.4000E+01
     -6.978  0.0000E+00  0.4000E+01
     -6.912  0.0000E+00  0.4000E+01
     -6.845  0.0000E+00  0.4000E+01
     -6.779  0.0000E+00  0.4000E+01
     -6.713  0.0000E+00  0.4000E+01
     -6.646  0.0000E+00  0.4000E+01
     -6.580  0.0000E+00  0.4000E+01
     -6.514  0.0000E+00  0.4000E+01
     -6.448  0.0000E+00  0.4000E+01
     -6.381  0.0000E+00  0.4000E+01
     -6.315  0.0000E+00  0.4000E+01
     -6.249  0.0000E+00  0.4000E+01
     -6.182  0.0000E+00  0.4000E+01
     -6.116  0.0000E+00  0.4000E+01
     -6.050  0.0000E+00  0.4000E+01
     -5.983  0.0000E+00  0.4000E+01
     -5.917  0.0000E+00  0.4000E+01
     -5.851  0.0000E+00  0.4000E+01
     -5.785  0.0000E+00  0.4000E+01
     -5.718  0.0000E+00  0.4000E+01
     -5.652  0.0000E+00  0.4000E+01
     -5.586  0.0000E+00  0.4000E+01
     -5.519  0.0000E+00  0.4000E+01
     -5.453  0.0000E+00  0.4000E+01
     -5.387  0.0000E+00  0.4000E+01
     -5.321  0.0000E+00  0.4000E+01
     -5.254  0.0000E+00  0.4000E+01
     -5.188  0.0000E+00  0.4000E+01
     -5.122  0.0000E+00  0.4000E+01
     -5.055  0.0000E+00  0.4000E+01
     -4.989  0.0000E+00  0.4000E+01
     -4.923  0.1913E-05  0.4000E+01
     -4.856  0.2510E+00  0.4017E+01
     -4.790  0.3861E+00  0.4042E+01
     -4.724  0.2350E+01  0.4198E+01
     -4.658  0.3495E+01  0.4430E+01
     -4.591  0.5471E+01  0.4792E+01
     -4.525  0.3466E+01  0.5022E+01
     -4.459  0.9154E+00  0.5083E+01
     -4.392  0.2407E+01  0.5242E+01
     -4.326  0.2413E+01  0.5402E+01
     -4.260  0.2866E+00  0.5421E+01
     -4.193  0.1808E+01  0.5541E+01
     -4.127  0.4252E+00  0.5570E+01
     -4.061  0.1199E+01  0.5649E+01
     -3.995  0.3591E+01  0.5887E+01
     -3.928  0.5320E+01  0.6240E+01
     -3.862  0.4769E+01  0.6556E+01
     -3.796  0.1251E+01  0.6639E+01
     -3.729  0.1756E+01  0.6755E+01
     -3.663  0.3271E+01  0.6972E+01
     -3.597  0.1181E+01  0.7050E+01
     -3.531  0.7795E-01  0.7056E+01
     -3.464  0.1185E+01  0.7134E+01
     -3.398  0.2843E+01  0.7323E+01
     -3.332  0.2255E+01  0.7472E+01
     -3.265  0.1361E+00  0.7481E+01
     -3.199  0.7371E-01  0.7486E+01
     -3.133  0.3869E+00  0.7512E+01
     -3.066  0.3602E+00  0.7536E+01
     -3.000  0.3546E+01  0.7771E+01
     -2.934  0.2410E+01  0.7931E+01
     -2.868  0.1140E+01  0.8006E+01
     -2.801  0.1344E+00  0.8015E+01
     -2.735  0.3285E+01  0.8233E+01
     -2.669  0.4775E+00  0.8264E+01
     -2.602  0.2655E+01  0.8440E+01
     -2.536  0.1128E+01  0.8515E+01
     -2.470  0.1947E+01  0.8644E+01
     -2.403  0.4377E+01  0.8934E+01
     -2.337  0.1825E+01  0.9055E+01
     -2.271  0.2296E-02  0.9056E+01
     -2.205  0.5795E-02  0.9056E+01
     -2.138  0.2817E+01  0.9243E+01
     -2.072  0.2706E+01  0.9422E+01
     -2.006  0.7560E+00  0.9472E+01
     -1.939  0.6260E-05  0.9472E+01
     -1.873  0.8362E+00  0.9528E+01
     -1.807  0.2922E+01  0.9721E+01
     -1.741  0.1267E-01  0.9722E+01
     -1.674  0.2041E-09  0.9722E+01
     -1.608  0.7809E-01  0.9727E+01
     -1.542  0.2419E+01  0.9888E+01
     -1.475  0.1743E-01  0.9889E+01
     -1.409  0.3972E+00  0.9915E+01
     -1.343  0.8626E+00  0.9972E+01
     -1.276  0.4157E+00  0.1000E+02
     -1.210  0.1862E-06  0.1000E+02
     -1.144  0.0000E+00  0.1000E+02
     -1.078  0.0000E+00  0.1000E+02
     -1.011  0.0000E+00  0.1000E+02
     -0.945  0.6640E-14  0.1000E+02
     -0.879  0.5139E-03  0.1000E+02
     -0.812  0.2026E+00  0.1001E+02
     -0.746  0.6373E-02  0.1001E+02
     -0.680  0.5967E-01  0.1002E+02
     -0.614  0.1489E+01  0.1012E+02
     -0.547  0.2064E+01  0.1025E+02
     -0.481  0.1413E+01  0.1035E+02
     -0.415  0.9257E+00  0.1041E+02
     -0.348  0.1890E+01  0.1053E+02
     -0.282  0.4980E+01  0.1086E+02
     -0.216  0.2871E+01  0.1105E+02
     -0.149  0.3648E+00  0.1108E+02
     -0.083  0.1387E+01  0.1117E+02
     -0.017  0.3104E+01  0.1138E+02
      0.049  0.1719E+01  0.1149E+02
      0.116  0.2764E+00  0.1151E+02
      0.182  0.6896E+01  0.1197E+02
      0.248  0.5173E+00  0.1200E+02
      0.315  0.3185E-06  0.1200E+02
      0.381  0.4601E-01  0.1200E+02
      0.447  0.1635E+00  0.1201E+02
      0.514  0.1330E-03  0.1201E+02
      0.580  0.1046E+01  0.1208E+02
      0.646  0.2110E+00  0.1210E+02
      0.712  0.2320E+01  0.1225E+02
      0.779  0.6800E+01  0.1270E+02
      0.845  0.5053E+01  0.1304E+02
      0.911  0.3764E+01  0.1329E+02
      0.978  0.3224E+01  0.1350E+02
      1.044  0.3416E+01  0.1373E+02
      1.110  0.3692E+01  0.1397E+02
      1.176  0.1172E-01  0.1397E+02
      1.243  0.2997E+00  0.1399E+02
      1.309  0.1193E+00  0.1400E+02
      1.375  0.9970E-02  0.1400E+02
      1.442  0.2665E+01  0.1418E+02
      1.508  0.6565E+01  0.1461E+02
      1.574  0.3325E+01  0.1483E+02
      1.641  0.6861E+01  0.1529E+02
      1.707  0.8391E+01  0.1584E+02
      1.773  0.2349E+01  0.1600E+02
      1.839  0.3248E-03  0.1600E+02
      1.906  0.0000E+00  0.1600E+02
      1.972  0.0000E+00  0.1600E+02
      2.038  0.5238E-09  0.1600E+02
      2.105  0.2580E-01  0.1600E+02
      2.171  0.1837E+00  0.1601E+02
      2.237  0.9282E-01  0.1602E+02
      2.303  0.1163E+01  0.1610E+02
      2.370  0.8292E-03  0.1610E+02
      2.436  0.1008E+01  0.1616E+02
      2.502  0.1156E+01  0.1624E+02
      2.569  0.3503E+00  0.1626E+02
      2.635  0.9096E-05  0.1626E+02
      2.701  0.1455E+01  0.1636E+02
      2.768  0.1059E+01  0.1643E+02
      2.834  0.1104E+01  0.1650E+02
      2.900  0.1532E+00  0.1651E+02
      2.966  0.1935E-04  0.1651E+02
      3.033  0.9071E+00  0.1657E+02
      3.099  0.2842E+01  0.1676E+02
      3.165  0.3861E+00  0.1679E+02
      3.232  0.8931E+00  0.1685E+02
      3.298  0.8757E+00  0.1691E+02
      3.364  0.1447E+01  0.1700E+02
      3.431  0.5118E+01  0.1734E+02
      3.497  0.1986E+01  0.1747E+02
      3.563  0.1454E-03  0.1747E+02
      3.629  0.9862E-01  0.1748E+02
      3.696  0.2915E+01  0.1767E+02
      3.762  0.7575E+00  0.1772E+02
      3.828  0.2515E-06  0.1772E+02
      3.895  0.2239E+00  0.1774E+02
      3.961  0.1033E+01  0.1781E+02
      4.027  0.1076E-03  0.1781E+02
      4.093  0.8231E-10  0.1781E+02
      4.160  0.8214E-01  0.1781E+02
      4.226  0.2426E+01  0.1797E+02
      4.292  0.5584E-02  0.1797E+02
      4.359  0.3440E-10  0.1797E+02
      4.425  0.1853E-01  0.1797E+02
      4.491  0.3999E+00  0.1800E+02
      4.558  0.5960E-03  0.1800E+02
      4.624  0.0000E+00  0.1800E+02
      4.690  0.0000E+00  0.1800E+02
      4.756  0.0000E+00  0.1800E+02
      4.823  0.0000E+00  0.1800E+02
      4.889  0.0000E+00  0.1800E+02
      4.955  0.0000E+00  0.1800E+02
      5.022  0.0000E+00  0.1800E+02
      5.088  0.0000E+00  0.1800E+02
      5.154  0.0000E+00  0.1800E+02
      5.220  0.0000E+00  0.1800E+02
      5.287  0.0000E+00  0.1800E+02
      5.353  0.0000E+00  0.1800E+02
