    2    2    1    1
  0.1251099E+03  0.4388842E-09  0.4388842E-09  0.1500000E-08  0.5000000E-15
  1.000000000000000E-004
  CAR 
 MoTe2 Hyun-Jung Kim.                    
     10    144     18
 
  0.0000000E+00  0.0000000E+00  0.0000000E+00  0.6944444E-02
    1      -13.631547   1.000000
    2      -13.631547   1.000000
    3       -9.866244   1.000000
    4       -9.866244   1.000000
    5       -3.270763   1.000000
    6       -3.270762   1.000000
    7       -1.433162   1.000000
    8       -1.433161   1.000000
    9       -1.431368   1.000000
   10       -1.431368   1.000000
   11       -0.838919   0.000000
   12       -0.838919   0.000000
   13        0.391850   0.000000
   14        0.391850   0.000000
   15        1.611489   0.000000
   16        1.611490   0.000000
   17        2.120949   0.000000
   18        2.121032   0.000000
 
  0.8333333E-01 -0.6938894E-17  0.0000000E+00  0.6944444E-02
    1      -13.573265   1.000000
    2      -13.573264   1.000000
    3       -9.891812   1.000000
    4       -9.891811   1.000000
    5       -3.384733   1.000000
    6       -3.384732   1.000000
    7       -2.068388   1.000000
    8       -2.068388   1.000000
    9       -1.348964   1.000000
   10       -1.348964   1.000000
   11       -0.560844   0.000000
   12       -0.560843   0.000000
   13        0.566159   0.000000
   14        0.566159   0.000000
   15        1.429232   0.000000
   16        1.429232   0.000000
   17        2.257615   0.000000
   18        2.257710   0.000000
 
  0.1666667E+00  0.0000000E+00  0.0000000E+00  0.6944444E-02
    1      -13.401532   1.000000
    2      -13.401532   1.000000
    3       -9.981108   1.000000
    4       -9.981107   1.000000
    5       -3.743936   1.000000
    6       -3.743936   1.000000
    7       -2.633487   1.000000
    8       -2.633487   1.000000
    9       -1.573368   1.000000
   10       -1.573367   1.000000
   11       -0.522788   0.000000
   12       -0.522788   0.000000
   13        0.904518   0.000000
   14        0.904518   0.000000
   15        1.475153   0.000000
   16        1.475153   0.000000
   17        2.494027   0.000000
   18        2.494118   0.000000
 
  0.2500000E+00  0.2775558E-16  0.0000000E+00  0.6944444E-02
    1      -13.127243   1.000000
    2      -13.127243   1.000000
    3      -10.162863   1.000000
    4      -10.162862   1.000000
    5       -4.199435   1.000000
    6       -4.199435   1.000000
    7       -3.057283   1.000000
    8       -3.057283   1.000000
    9       -1.839707   1.000000
   10       -1.839707   1.000000
   11       -0.656200   0.000000
   12       -0.656199   0.000000
   13        1.074402   0.000000
   14        1.074402   0.000000
   15        1.702190   0.000000
   16        1.702191   0.000000
   17        2.817146   0.000000
   18        2.817227   0.000000
 
  0.3333333E+00  0.5551115E-16  0.0000000E+00  0.6944444E-02
    1      -12.775590   1.000000
    2      -12.775589   1.000000
    3      -10.450576   1.000000
    4      -10.450576   1.000000
    5       -4.522593   1.000000
    6       -4.522593   1.000000
    7       -3.428204   1.000000
    8       -3.428204   1.000000
    9       -2.141351   1.000000
   10       -2.141351   1.000000
   11       -0.603235   0.000000
   12       -0.603234   0.000000
   13        1.018725   0.000000
   14        1.018725   0.000000
   15        1.723989   0.000000
   16        1.723990   0.000000
   17        3.172232   0.000000
   18        3.172337   0.000000
 
  0.4166667E+00  0.0000000E+00  0.0000000E+00  0.6944444E-02
    1      -12.410810   1.000000
    2      -12.410809   1.000000
    3      -10.789469   1.000000
    4      -10.789469   1.000000
    5       -4.651433   1.000000
    6       -4.651433   1.000000
    7       -3.726953   1.000000
    8       -3.726953   1.000000
    9       -2.378311   1.000000
   10       -2.378310   1.000000
   11       -0.423512   0.000000
   12       -0.423511   0.000000
   13        0.833441   0.000000
   14        0.833442   0.000000
   15        1.663864   0.000000
   16        1.663865   0.000000
   17        3.307664   0.000000
   18        3.307675   0.000000
 
  0.5000000E+00  0.5551115E-16  0.0000000E+00  0.6944444E-02
    1      -12.220441   1.000000
    2      -12.220441   1.000000
    3      -10.975044   1.000000
    4      -10.975044   1.000000
    5       -4.667450   1.000000
    6       -4.667450   1.000000
    7       -3.853360   1.000000
    8       -3.853360   1.000000
    9       -2.465366   1.000000
   10       -2.465366   1.000000
   11       -0.317321   0.000000
   12       -0.317321   0.000000
   13        0.725569   0.000000
   14        0.725570   0.000000
   15        1.638882   0.000000
   16        1.638883   0.000000
   17        3.279520   0.000000
   18        3.279522   0.000000
 
 -0.4166667E+00  0.0000000E+00  0.0000000E+00  0.6944444E-02
    1      -12.410810   1.000000
    2      -12.410809   1.000000
    3      -10.789469   1.000000
    4      -10.789469   1.000000
    5       -4.651433   1.000000
    6       -4.651433   1.000000
    7       -3.726953   1.000000
    8       -3.726953   1.000000
    9       -2.378311   1.000000
   10       -2.378310   1.000000
   11       -0.423512   0.000000
   12       -0.423511   0.000000
   13        0.833441   0.000000
   14        0.833442   0.000000
   15        1.663864   0.000000
   16        1.663865   0.000000
   17        3.307663   0.000000
   18        3.307674   0.000000
 
 -0.3333333E+00 -0.5551115E-16  0.0000000E+00  0.6944444E-02
    1      -12.775590   1.000000
    2      -12.775589   1.000000
    3      -10.450576   1.000000
    4      -10.450576   1.000000
    5       -4.522593   1.000000
    6       -4.522593   1.000000
    7       -3.428205   1.000000
    8       -3.428204   1.000000
    9       -2.141351   1.000000
   10       -2.141351   1.000000
   11       -0.603235   0.000000
   12       -0.603234   0.000000
   13        1.018725   0.000000
   14        1.018725   0.000000
   15        1.723989   0.000000
   16        1.723990   0.000000
   17        3.172208   0.000000
   18        3.183311   0.000000
 
 -0.2500000E+00 -0.2775558E-16  0.0000000E+00  0.6944444E-02
    1      -13.127243   1.000000
    2      -13.127243   1.000000
    3      -10.162863   1.000000
    4      -10.162862   1.000000
    5       -4.199435   1.000000
    6       -4.199435   1.000000
    7       -3.057284   1.000000
    8       -3.057283   1.000000
    9       -1.839707   1.000000
   10       -1.839707   1.000000
   11       -0.656200   0.000000
   12       -0.656199   0.000000
   13        1.074402   0.000000
   14        1.074403   0.000000
   15        1.702190   0.000000
   16        1.702191   0.000000
   17        2.817141   0.000000
   18        2.817203   0.000000
 
 -0.1666667E+00  0.0000000E+00  0.0000000E+00  0.6944444E-02
    1      -13.401532   1.000000
    2      -13.401532   1.000000
    3       -9.981108   1.000000
    4       -9.981107   1.000000
    5       -3.743936   1.000000
    6       -3.743936   1.000000
    7       -2.633487   1.000000
    8       -2.633487   1.000000
    9       -1.573368   1.000000
   10       -1.573367   1.000000
   11       -0.522788   0.000000
   12       -0.522788   0.000000
   13        0.904518   0.000000
   14        0.904519   0.000000
   15        1.475152   0.000000
   16        1.475152   0.000000
   17        2.494026   0.000000
   18        2.494118   0.000000
 
 -0.8333333E-01  0.6938894E-17  0.0000000E+00  0.6944444E-02
    1      -13.573265   1.000000
    2      -13.573264   1.000000
    3       -9.891812   1.000000
    4       -9.891811   1.000000
    5       -3.384732   1.000000
    6       -3.384732   1.000000
    7       -2.068388   1.000000
    8       -2.068388   1.000000
    9       -1.348964   1.000000
   10       -1.348964   1.000000
   11       -0.560844   0.000000
   12       -0.560843   0.000000
   13        0.566159   0.000000
   14        0.566160   0.000000
   15        1.429231   0.000000
   16        1.429232   0.000000
   17        2.257614   0.000000
   18        2.257705   0.000000
 
  0.0000000E+00  0.8333333E-01  0.0000000E+00  0.6944444E-02
    1      -13.573265   1.000000
    2      -13.573264   1.000000
    3       -9.891812   1.000000
    4       -9.891811   1.000000
    5       -3.384732   1.000000
    6       -3.384732   1.000000
    7       -2.068388   1.000000
    8       -2.068388   1.000000
    9       -1.348964   1.000000
   10       -1.348964   1.000000
   11       -0.560844   0.000000
   12       -0.560843   0.000000
   13        0.566159   0.000000
   14        0.566159   0.000000
   15        1.429231   0.000000
   16        1.429232   0.000000
   17        2.257614   0.000000
   18        2.257710   0.000000
 
  0.8333333E-01  0.8333333E-01  0.0000000E+00  0.6944444E-02
    1      -13.573265   1.000000
    2      -13.573264   1.000000
    3       -9.891811   1.000000
    4       -9.891811   1.000000
    5       -3.384732   1.000000
    6       -3.384732   1.000000
    7       -2.068386   1.000000
    8       -2.068386   1.000000
    9       -1.348969   1.000000
   10       -1.348968   1.000000
   11       -0.560844   0.000000
   12       -0.560844   0.000000
   13        0.566160   0.000000
   14        0.566161   0.000000
   15        1.429233   0.000000
   16        1.429234   0.000000
   17        2.257615   0.000000
   18        2.257706   0.000000
 
  0.1666667E+00  0.8333333E-01  0.0000000E+00  0.6944444E-02
    1      -13.458191   1.000000
    2      -13.458190   1.000000
    3       -9.949268   1.000000
    4       -9.949268   1.000000
    5       -3.618665   1.000000
    6       -3.618665   1.000000
    7       -2.505629   1.000000
    8       -2.505629   1.000000
    9       -1.585340   1.000000
   10       -1.585339   1.000000
   11       -0.326692   0.000000
   12       -0.326692   0.000000
   13        0.693374   0.000000
   14        0.693375   0.000000
   15        1.448222   0.000000
   16        1.448223   0.000000
   17        2.424031   0.000000
   18        2.424127   0.000000
 
  0.2500000E+00  0.8333333E-01  0.0000000E+00  0.6944444E-02
    1      -13.234568   1.000000
    2      -13.234567   1.000000
    3      -10.085389   1.000000
    4      -10.085388   1.000000
    5       -4.007146   1.000000
    6       -4.007146   1.000000
    7       -2.980700   1.000000
    8       -2.980700   1.000000
    9       -1.866840   1.000000
   10       -1.866840   1.000000
   11       -0.296124   0.000000
   12       -0.296124   0.000000
   13        0.845218   0.000000
   14        0.845218   0.000000
   15        1.631487   0.000000
   16        1.631488   0.000000
   17        2.698383   0.000000
   18        2.698473   0.000000
 
  0.3333333E+00  0.8333333E-01  0.0000000E+00  0.6944444E-02
    1      -12.918635   1.000000
    2      -12.918635   1.000000
    3      -10.323863   1.000000
    4      -10.323863   1.000000
    5       -4.367406   1.000000
    6       -4.367406   1.000000
    7       -3.398756   1.000000
    8       -3.398756   1.000000
    9       -2.132477   1.000000
   10       -2.132476   1.000000
   11       -0.351344   0.000000
   12       -0.351344   0.000000
   13        0.991179   0.000000
   14        0.991180   0.000000
   15        1.643774   0.000000
   16        1.643775   0.000000
   17        3.064444   0.000000
   18        3.064620   0.000000
 
  0.4166667E+00  0.8333333E-01  0.0000000E+00  0.6944444E-02
    1      -12.548313   1.000000
    2      -12.548312   1.000000
    3      -10.651301   1.000000
    4      -10.651301   1.000000
    5       -4.582777   1.000000
    6       -4.582777   1.000000
    7       -3.707301   1.000000
    8       -3.707300   1.000000
    9       -2.413242   1.000000
   10       -2.413242   1.000000
   11       -0.250062   0.000000
   12       -0.250062   0.000000
   13        0.933581   0.000000
   14        0.933582   0.000000
   15        1.534460   0.000000
   16        1.534460   0.000000
   17        3.390905   0.000000
   18        3.391018   0.000000
 
  0.5000000E+00  0.8333333E-01  0.0000000E+00  0.6944444E-02
    1      -12.231951   1.000000
    2      -12.231951   1.000000
    3      -10.954111   1.000000
    4      -10.954110   1.000000
    5       -4.659436   1.000000
    6       -4.659435   1.000000
    7       -3.874632   1.000000
    8       -3.874631   1.000000
    9       -2.604745   1.000000
   10       -2.604744   1.000000
   11       -0.083960   0.000000
   12       -0.083959   0.000000
   13        0.762989   0.000000
   14        0.762990   0.000000
   15        1.493004   0.000000
   16        1.493004   0.000000
   17        3.379167   0.000000
   18        3.379171   0.000000
 
 -0.4166667E+00  0.8333333E-01  0.0000000E+00  0.6944444E-02
    1      -12.231951   1.000000
    2      -12.231950   1.000000
    3      -10.954111   1.000000
    4      -10.954111   1.000000
    5       -4.659435   1.000000
    6       -4.659435   1.000000
    7       -3.874633   1.000000
    8       -3.874632   1.000000
    9       -2.604744   1.000000
   10       -2.604744   1.000000
   11       -0.083960   0.000000
   12       -0.083960   0.000000
   13        0.762990   0.000000
   14        0.762990   0.000000
   15        1.493004   0.000000
   16        1.493004   0.000000
   17        3.379167   0.000000
   18        3.379171   0.000000
 
 -0.3333333E+00  0.8333333E-01  0.0000000E+00  0.6944444E-02
    1      -12.548312   1.000000
    2      -12.548311   1.000000
    3      -10.651302   1.000000
    4      -10.651302   1.000000
    5       -4.582777   1.000000
    6       -4.582776   1.000000
    7       -3.707302   1.000000
    8       -3.707302   1.000000
    9       -2.413240   1.000000
   10       -2.413240   1.000000
   11       -0.250063   0.000000
   12       -0.250063   0.000000
   13        0.933582   0.000000
   14        0.933582   0.000000
   15        1.534460   0.000000
   16        1.534460   0.000000
   17        3.390928   0.000000
   18        3.391116   0.000000
 
 -0.2500000E+00  0.8333333E-01  0.0000000E+00  0.6944444E-02
    1      -12.918634   1.000000
    2      -12.918634   1.000000
    3      -10.323864   1.000000
    4      -10.323864   1.000000
    5       -4.367407   1.000000
    6       -4.367407   1.000000
    7       -3.398756   1.000000
    8       -3.398756   1.000000
    9       -2.132475   1.000000
   10       -2.132474   1.000000
   11       -0.351345   0.000000
   12       -0.351345   0.000000
   13        0.991179   0.000000
   14        0.991180   0.000000
   15        1.643775   0.000000
   16        1.643776   0.000000
   17        3.064424   0.000000
   18        3.064587   0.000000
 
 -0.1666667E+00  0.8333333E-01  0.0000000E+00  0.6944444E-02
    1      -13.234567   1.000000
    2      -13.234567   1.000000
    3      -10.085390   1.000000
    4      -10.085389   1.000000
    5       -4.007148   1.000000
    6       -4.007148   1.000000
    7       -2.980700   1.000000
    8       -2.980699   1.000000
    9       -1.866837   1.000000
   10       -1.866836   1.000000
   11       -0.296125   0.000000
   12       -0.296125   0.000000
   13        0.845219   0.000000
   14        0.845219   0.000000
   15        1.631487   0.000000
   16        1.631487   0.000000
   17        2.698388   0.000000
   18        2.698486   0.000000
 
 -0.8333333E-01  0.8333333E-01  0.0000000E+00  0.6944444E-02
    1      -13.458191   1.000000
    2      -13.458190   1.000000
    3       -9.949269   1.000000
    4       -9.949268   1.000000
    5       -3.618667   1.000000
    6       -3.618667   1.000000
    7       -2.505630   1.000000
    8       -2.505630   1.000000
    9       -1.585334   1.000000
   10       -1.585334   1.000000
   11       -0.326692   0.000000
   12       -0.326692   0.000000
   13        0.693375   0.000000
   14        0.693375   0.000000
   15        1.448219   0.000000
   16        1.448219   0.000000
   17        2.424033   0.000000
   18        2.424128   0.000000
 
  0.0000000E+00  0.1666667E+00  0.0000000E+00  0.6944444E-02
    1      -13.401532   1.000000
    2      -13.401532   1.000000
    3       -9.981108   1.000000
    4       -9.981107   1.000000
    5       -3.743936   1.000000
    6       -3.743936   1.000000
    7       -2.633487   1.000000
    8       -2.633487   1.000000
    9       -1.573367   1.000000
   10       -1.573367   1.000000
   11       -0.522788   0.000000
   12       -0.522788   0.000000
   13        0.904518   0.000000
   14        0.904519   0.000000
   15        1.475152   0.000000
   16        1.475153   0.000000
   17        2.494023   0.000000
   18        2.494117   0.000000
 
  0.8333333E-01  0.1666667E+00  0.0000000E+00  0.6944444E-02
    1      -13.458191   1.000000
    2      -13.458190   1.000000
    3       -9.949268   1.000000
    4       -9.949268   1.000000
    5       -3.618665   1.000000
    6       -3.618665   1.000000
    7       -2.505629   1.000000
    8       -2.505629   1.000000
    9       -1.585340   1.000000
   10       -1.585339   1.000000
   11       -0.326692   0.000000
   12       -0.326692   0.000000
   13        0.693374   0.000000
   14        0.693375   0.000000
   15        1.448222   0.000000
   16        1.448223   0.000000
   17        2.424033   0.000000
   18        2.424129   0.000000
 
  0.1666667E+00  0.1666667E+00  0.0000000E+00  0.6944444E-02
    1      -13.401533   1.000000
    2      -13.401532   1.000000
    3       -9.981107   1.000000
    4       -9.981106   1.000000
    5       -3.743934   1.000000
    6       -3.743933   1.000000
    7       -2.633487   1.000000
    8       -2.633487   1.000000
    9       -1.573371   1.000000
   10       -1.573370   1.000000
   11       -0.522792   0.000000
   12       -0.522791   0.000000
   13        0.904521   0.000000
   14        0.904521   0.000000
   15        1.475153   0.000000
   16        1.475154   0.000000
   17        2.494023   0.000000
   18        2.494116   0.000000
 
  0.2500000E+00  0.1666667E+00  0.0000000E+00  0.6944444E-02
    1      -13.234568   1.000000
    2      -13.234567   1.000000
    3      -10.085388   1.000000
    4      -10.085388   1.000000
    5       -4.007145   1.000000
    6       -4.007144   1.000000
    7       -2.980701   1.000000
    8       -2.980701   1.000000
    9       -1.866841   1.000000
   10       -1.866840   1.000000
   11       -0.296127   0.000000
   12       -0.296126   0.000000
   13        0.845219   0.000000
   14        0.845220   0.000000
   15        1.631487   0.000000
   16        1.631488   0.000000
   17        2.698383   0.000000
   18        2.698475   0.000000
 
  0.3333333E+00  0.1666667E+00  0.0000000E+00  0.6944444E-02
    1      -12.967410   1.000000
    2      -12.967410   1.000000
    3      -10.280532   1.000000
    4      -10.280532   1.000000
    5       -4.249067   1.000000
    6       -4.249066   1.000000
    7       -3.486003   1.000000
    8       -3.486002   1.000000
    9       -2.167787   1.000000
   10       -2.167786   1.000000
   11        0.032662   0.000000
   12        0.032663   0.000000
   13        0.720250   0.000000
   14        0.720250   0.000000
   15        1.671804   0.000000
   16        1.671805   0.000000
   17        3.025304   0.000000
   18        3.025371   0.000000
 
  0.4166667E+00  0.1666667E+00  0.0000000E+00  0.6944444E-02
    1      -12.622356   1.000000
    2      -12.622356   1.000000
    3      -10.571608   1.000000
    4      -10.571608   1.000000
    5       -4.438872   1.000000
    6       -4.438872   1.000000
    7       -3.877981   1.000000
    8       -3.877981   1.000000
    9       -2.457422   1.000000
   10       -2.457422   1.000000
   11        0.140611   0.000000
   12        0.140612   0.000000
   13        0.720723   0.000000
   14        0.720723   0.000000
   15        1.620287   0.000000
   16        1.620287   0.000000
   17        3.440814   0.000000
   18        3.441588   0.000000
 
  0.5000000E+00  0.1666667E+00  0.0000000E+00  0.6944444E-02
    1      -12.254057   1.000000
    2      -12.254057   1.000000
    3      -10.913012   1.000000
    4      -10.913011   1.000000
    5       -4.619441   1.000000
    6       -4.619441   1.000000
    7       -3.986613   1.000000
    8       -3.986613   1.000000
    9       -2.747748   1.000000
   10       -2.747747   1.000000
   11        0.152068   0.000000
   12        0.152068   0.000000
   13        0.806067   0.000000
   14        0.806067   0.000000
   15        1.496236   0.000000
   16        1.496236   0.000000
   17        3.688310   0.000000
   18        3.688320   0.000000
 
 -0.4166667E+00  0.1666667E+00  0.0000000E+00  0.6944444E-02
    1      -12.047912   1.000000
    2      -12.047911   1.000000
    3      -11.112116   1.000000
    4      -11.112116   1.000000
    5       -4.699753   1.000000
    6       -4.699752   1.000000
    7       -3.971687   1.000000
    8       -3.971687   1.000000
    9       -2.886215   1.000000
   10       -2.886215   1.000000
   11        0.147050   0.000000
   12        0.147050   0.000000
   13        0.884165   0.000000
   14        0.884166   0.000000
   15        1.409502   0.000000
   16        1.409502   0.000000
   17        3.649412   0.000000
   18        3.649415   0.000000
 
 -0.3333333E+00  0.1666667E+00  0.0000000E+00  0.6944444E-02
    1      -12.254056   1.000000
    2      -12.254055   1.000000
    3      -10.913014   1.000000
    4      -10.913014   1.000000
    5       -4.619440   1.000000
    6       -4.619440   1.000000
    7       -3.986615   1.000000
    8       -3.986615   1.000000
    9       -2.747747   1.000000
   10       -2.747746   1.000000
   11        0.152068   0.000000
   12        0.152068   0.000000
   13        0.806067   0.000000
   14        0.806067   0.000000
   15        1.496236   0.000000
   16        1.496236   0.000000
   17        3.688304   0.000000
   18        3.688321   0.000000
 
 -0.2500000E+00  0.1666667E+00  0.0000000E+00  0.6944444E-02
    1      -12.622355   1.000000
    2      -12.622354   1.000000
    3      -10.571611   1.000000
    4      -10.571611   1.000000
    5       -4.438872   1.000000
    6       -4.438871   1.000000
    7       -3.877982   1.000000
    8       -3.877981   1.000000
    9       -2.457421   1.000000
   10       -2.457420   1.000000
   11        0.140611   0.000000
   12        0.140611   0.000000
   13        0.720723   0.000000
   14        0.720724   0.000000
   15        1.620288   0.000000
   16        1.620288   0.000000
   17        3.440848   0.000000
   18        3.446222   0.000000
 
 -0.1666667E+00  0.1666667E+00  0.0000000E+00  0.6944444E-02
    1      -12.967409   1.000000
    2      -12.967409   1.000000
    3      -10.280535   1.000000
    4      -10.280534   1.000000
    5       -4.249069   1.000000
    6       -4.249069   1.000000
    7       -3.486001   1.000000
    8       -3.486001   1.000000
    9       -2.167784   1.000000
   10       -2.167783   1.000000
   11        0.032662   0.000000
   12        0.032662   0.000000
   13        0.720251   0.000000
   14        0.720251   0.000000
   15        1.671806   0.000000
   16        1.671806   0.000000
   17        3.025307   0.000000
   18        3.025398   0.000000
 
 -0.8333333E-01  0.1666667E+00  0.0000000E+00  0.6944444E-02
    1      -13.234567   1.000000
    2      -13.234567   1.000000
    3      -10.085390   1.000000
    4      -10.085389   1.000000
    5       -4.007148   1.000000
    6       -4.007148   1.000000
    7       -2.980700   1.000000
    8       -2.980699   1.000000
    9       -1.866837   1.000000
   10       -1.866836   1.000000
   11       -0.296125   0.000000
   12       -0.296125   0.000000
   13        0.845219   0.000000
   14        0.845219   0.000000
   15        1.631487   0.000000
   16        1.631487   0.000000
   17        2.698420   0.000000
   18        2.698487   0.000000
 
  0.0000000E+00  0.2500000E+00  0.0000000E+00  0.6944444E-02
    1      -13.127243   1.000000
    2      -13.127243   1.000000
    3      -10.162863   1.000000
    4      -10.162862   1.000000
    5       -4.199435   1.000000
    6       -4.199435   1.000000
    7       -3.057284   1.000000
    8       -3.057283   1.000000
    9       -1.839707   1.000000
   10       -1.839707   1.000000
   11       -0.656200   0.000000
   12       -0.656199   0.000000
   13        1.074402   0.000000
   14        1.074402   0.000000
   15        1.702190   0.000000
   16        1.702191   0.000000
   17        2.817132   0.000000
   18        2.817203   0.000000
 
  0.8333333E-01  0.2500000E+00  0.0000000E+00  0.6944444E-02
    1      -13.234568   1.000000
    2      -13.234567   1.000000
    3      -10.085389   1.000000
    4      -10.085388   1.000000
    5       -4.007146   1.000000
    6       -4.007146   1.000000
    7       -2.980700   1.000000
    8       -2.980700   1.000000
    9       -1.866840   1.000000
   10       -1.866840   1.000000
   11       -0.296124   0.000000
   12       -0.296123   0.000000
   13        0.845217   0.000000
   14        0.845218   0.000000
   15        1.631487   0.000000
   16        1.631488   0.000000
   17        2.698387   0.000000
   18        2.698476   0.000000
 
  0.1666667E+00  0.2500000E+00  0.0000000E+00  0.6944444E-02
    1      -13.234568   1.000000
    2      -13.234567   1.000000
    3      -10.085388   1.000000
    4      -10.085388   1.000000
    5       -4.007145   1.000000
    6       -4.007144   1.000000
    7       -2.980701   1.000000
    8       -2.980700   1.000000
    9       -1.866841   1.000000
   10       -1.866840   1.000000
   11       -0.296127   0.000000
   12       -0.296126   0.000000
   13        0.845219   0.000000
   14        0.845220   0.000000
   15        1.631487   0.000000
   16        1.631488   0.000000
   17        2.698406   0.000000
   18        2.698504   0.000000
 
  0.2500000E+00  0.2500000E+00  0.0000000E+00  0.6944444E-02
    1      -13.127244   1.000000
    2      -13.127244   1.000000
    3      -10.162860   1.000000
    4      -10.162860   1.000000
    5       -4.199432   1.000000
    6       -4.199432   1.000000
    7       -3.057285   1.000000
    8       -3.057285   1.000000
    9       -1.839709   1.000000
   10       -1.839709   1.000000
   11       -0.656203   0.000000
   12       -0.656203   0.000000
   13        1.074403   0.000000
   14        1.074403   0.000000
   15        1.702190   0.000000
   16        1.702190   0.000000
   17        2.817138   0.000000
   18        2.817315   0.000000
 
  0.3333333E+00  0.2500000E+00  0.0000000E+00  0.6944444E-02
    1      -12.918636   1.000000
    2      -12.918636   1.000000
    3      -10.323861   1.000000
    4      -10.323861   1.000000
    5       -4.367404   1.000000
    6       -4.367404   1.000000
    7       -3.398758   1.000000
    8       -3.398758   1.000000
    9       -2.132477   1.000000
   10       -2.132476   1.000000
   11       -0.351347   0.000000
   12       -0.351346   0.000000
   13        0.991179   0.000000
   14        0.991180   0.000000
   15        1.643773   0.000000
   16        1.643774   0.000000
   17        3.064422   0.000000
   18        3.064543   0.000000
 
  0.4166667E+00  0.2500000E+00  0.0000000E+00  0.6944444E-02
    1      -12.622357   1.000000
    2      -12.622357   1.000000
    3      -10.571607   1.000000
    4      -10.571606   1.000000
    5       -4.438871   1.000000
    6       -4.438870   1.000000
    7       -3.877982   1.000000
    8       -3.877982   1.000000
    9       -2.457422   1.000000
   10       -2.457421   1.000000
   11        0.140610   0.000000
   12        0.140611   0.000000
   13        0.720722   0.000000
   14        0.720723   0.000000
   15        1.620285   0.000000
   16        1.620286   0.000000
   17        3.440949   0.000000
   18        3.442046   0.000000
 
  0.5000000E+00  0.2500000E+00  0.0000000E+00  0.6944444E-02
    1      -12.264684   1.000000
    2      -12.264683   1.000000
    3      -10.892790   1.000000
    4      -10.892790   1.000000
    5       -4.577962   1.000000
    6       -4.577962   1.000000
    7       -4.084854   1.000000
    8       -4.084853   1.000000
    9       -2.769820   1.000000
   10       -2.769819   1.000000
   11        0.177231   0.000000
   12        0.177231   0.000000
   13        0.752011   0.000000
   14        0.752011   0.000000
   15        1.707276   0.000000
   16        1.707277   0.000000
   17        3.907286   0.000000
   18        3.909631   0.000000
 
 -0.4166667E+00  0.2500000E+00  0.0000000E+00  0.6944444E-02
    1      -11.916894   1.000000
    2      -11.916894   1.000000
    3      -11.221860   1.000000
    4      -11.221860   1.000000
    5       -4.770890   1.000000
    6       -4.770889   1.000000
    7       -3.986379   1.000000
    8       -3.986379   1.000000
    9       -3.024377   1.000000
   10       -3.024376   1.000000
   11       -0.026726   0.000000
   12       -0.026726   0.000000
   13        1.068984   0.000000
   14        1.068984   0.000000
   15        1.643876   0.000000
   16        1.643877   0.000000
   17        4.185811   0.000000
   18        4.185827   0.000000
 
 -0.3333333E+00  0.2500000E+00  0.0000000E+00  0.6944444E-02
    1      -11.916891   1.000000
    2      -11.916891   1.000000
    3      -11.221863   1.000000
    4      -11.221863   1.000000
    5       -4.770889   1.000000
    6       -4.770888   1.000000
    7       -3.986380   1.000000
    8       -3.986379   1.000000
    9       -3.024377   1.000000
   10       -3.024376   1.000000
   11       -0.026725   0.000000
   12       -0.026725   0.000000
   13        1.068983   0.000000
   14        1.068984   0.000000
   15        1.643876   0.000000
   16        1.643877   0.000000
   17        4.185805   0.000000
   18        4.185815   0.000000
 
 -0.2500000E+00  0.2500000E+00  0.0000000E+00  0.6944444E-02
    1      -12.264681   1.000000
    2      -12.264680   1.000000
    3      -10.892795   1.000000
    4      -10.892794   1.000000
    5       -4.577960   1.000000
    6       -4.577960   1.000000
    7       -4.084855   1.000000
    8       -4.084855   1.000000
    9       -2.769820   1.000000
   10       -2.769819   1.000000
   11        0.177232   0.000000
   12        0.177233   0.000000
   13        0.752010   0.000000
   14        0.752011   0.000000
   15        1.707277   0.000000
   16        1.707278   0.000000
   17        3.907136   0.000000
   18        3.907317   0.000000
 
 -0.1666667E+00  0.2500000E+00  0.0000000E+00  0.6944444E-02
    1      -12.622355   1.000000
    2      -12.622354   1.000000
    3      -10.571611   1.000000
    4      -10.571611   1.000000
    5       -4.438871   1.000000
    6       -4.438871   1.000000
    7       -3.877982   1.000000
    8       -3.877982   1.000000
    9       -2.457421   1.000000
   10       -2.457420   1.000000
   11        0.140611   0.000000
   12        0.140611   0.000000
   13        0.720723   0.000000
   14        0.720724   0.000000
   15        1.620288   0.000000
   16        1.620288   0.000000
   17        3.440837   0.000000
   18        3.442193   0.000000
 
 -0.8333333E-01  0.2500000E+00  0.0000000E+00  0.6944444E-02
    1      -12.918634   1.000000
    2      -12.918634   1.000000
    3      -10.323864   1.000000
    4      -10.323864   1.000000
    5       -4.367407   1.000000
    6       -4.367406   1.000000
    7       -3.398756   1.000000
    8       -3.398756   1.000000
    9       -2.132475   1.000000
   10       -2.132474   1.000000
   11       -0.351345   0.000000
   12       -0.351345   0.000000
   13        0.991179   0.000000
   14        0.991180   0.000000
   15        1.643775   0.000000
   16        1.643776   0.000000
   17        3.064499   0.000000
   18        3.064625   0.000000
 
  0.0000000E+00  0.3333333E+00  0.0000000E+00  0.6944444E-02
    1      -12.775590   1.000000
    2      -12.775589   1.000000
    3      -10.450576   1.000000
    4      -10.450576   1.000000
    5       -4.522593   1.000000
    6       -4.522592   1.000000
    7       -3.428205   1.000000
    8       -3.428204   1.000000
    9       -2.141351   1.000000
   10       -2.141351   1.000000
   11       -0.603235   0.000000
   12       -0.603234   0.000000
   13        1.018725   0.000000
   14        1.018725   0.000000
   15        1.723990   0.000000
   16        1.723990   0.000000
   17        3.172191   0.000000
   18        3.172387   0.000000
 
  0.8333333E-01  0.3333333E+00  0.0000000E+00  0.6944444E-02
    1      -12.918635   1.000000
    2      -12.918635   1.000000
    3      -10.323863   1.000000
    4      -10.323863   1.000000
    5       -4.367406   1.000000
    6       -4.367406   1.000000
    7       -3.398756   1.000000
    8       -3.398756   1.000000
    9       -2.132477   1.000000
   10       -2.132476   1.000000
   11       -0.351344   0.000000
   12       -0.351343   0.000000
   13        0.991179   0.000000
   14        0.991179   0.000000
   15        1.643774   0.000000
   16        1.643774   0.000000
   17        3.064442   0.000000
   18        3.065724   0.000000
 
  0.1666667E+00  0.3333333E+00  0.0000000E+00  0.6944444E-02
    1      -12.967410   1.000000
    2      -12.967410   1.000000
    3      -10.280532   1.000000
    4      -10.280532   1.000000
    5       -4.249067   1.000000
    6       -4.249066   1.000000
    7       -3.486003   1.000000
    8       -3.486002   1.000000
    9       -2.167787   1.000000
   10       -2.167786   1.000000
   11        0.032662   0.000000
   12        0.032663   0.000000
   13        0.720250   0.000000
   14        0.720250   0.000000
   15        1.671804   0.000000
   16        1.671805   0.000000
   17        3.025347   0.000000
   18        3.025633   0.000000
 
  0.2500000E+00  0.3333333E+00  0.0000000E+00  0.6944444E-02
    1      -12.918636   1.000000
    2      -12.918636   1.000000
    3      -10.323861   1.000000
    4      -10.323861   1.000000
    5       -4.367404   1.000000
    6       -4.367404   1.000000
    7       -3.398758   1.000000
    8       -3.398757   1.000000
    9       -2.132477   1.000000
   10       -2.132476   1.000000
   11       -0.351347   0.000000
   12       -0.351346   0.000000
   13        0.991179   0.000000
   14        0.991179   0.000000
   15        1.643773   0.000000
   16        1.643773   0.000000
   17        3.064503   0.000000
   18        3.066426   0.000000
 
  0.3333333E+00  0.3333333E+00  0.0000000E+00  0.6944444E-02
    1      -12.775592   1.000000
    2      -12.775592   1.000000
    3      -10.450572   1.000000
    4      -10.450572   1.000000
    5       -4.522591   1.000000
    6       -4.522591   1.000000
    7       -3.428206   1.000000
    8       -3.428205   1.000000
    9       -2.141352   1.000000
   10       -2.141351   1.000000
   11       -0.603238   0.000000
   12       -0.603237   0.000000
   13        1.018724   0.000000
   14        1.018724   0.000000
   15        1.723988   0.000000
   16        1.723988   0.000000
   17        3.172217   0.000000
   18        3.172811   0.000000
 
  0.4166667E+00  0.3333333E+00  0.0000000E+00  0.6944444E-02
    1      -12.548316   1.000000
    2      -12.548315   1.000000
    3      -10.651297   1.000000
    4      -10.651296   1.000000
    5       -4.582776   1.000000
    6       -4.582776   1.000000
    7       -3.707302   1.000000
    8       -3.707302   1.000000
    9       -2.413241   1.000000
   10       -2.413241   1.000000
   11       -0.250065   0.000000
   12       -0.250065   0.000000
   13        0.933580   0.000000
   14        0.933581   0.000000
   15        1.534458   0.000000
   16        1.534458   0.000000
   17        3.390913   0.000000
   18        3.391315   0.000000
 
  0.5000000E+00  0.3333333E+00  0.0000000E+00  0.6944444E-02
    1      -12.254061   1.000000
    2      -12.254060   1.000000
    3      -10.913007   1.000000
    4      -10.913007   1.000000
    5       -4.619441   1.000000
    6       -4.619441   1.000000
    7       -3.986615   1.000000
    8       -3.986614   1.000000
    9       -2.747746   1.000000
   10       -2.747746   1.000000
   11        0.152066   0.000000
   12        0.152067   0.000000
   13        0.806065   0.000000
   14        0.806066   0.000000
   15        1.496234   0.000000
   16        1.496235   0.000000
   17        3.688305   0.000000
   18        3.688318   0.000000
 
 -0.4166667E+00  0.3333333E+00  0.0000000E+00  0.6944444E-02
    1      -11.916898   1.000000
    2      -11.916897   1.000000
    3      -11.221856   1.000000
    4      -11.221856   1.000000
    5       -4.770890   1.000000
    6       -4.770890   1.000000
    7       -3.986380   1.000000
    8       -3.986379   1.000000
    9       -3.024376   1.000000
   10       -3.024375   1.000000
   11       -0.026727   0.000000
   12       -0.026726   0.000000
   13        1.068983   0.000000
   14        1.068984   0.000000
   15        1.643876   0.000000
   16        1.643877   0.000000
   17        4.185815   0.000000
   18        4.185847   0.000000
 
 -0.3333333E+00  0.3333333E+00  0.0000000E+00  0.6944444E-02
    1      -11.583999   1.000000
    2      -11.583999   1.000000
    3      -11.543331   1.000000
    4      -11.543331   1.000000
    5       -4.859983   1.000000
    6       -4.859982   1.000000
    7       -3.912641   1.000000
    8       -3.912641   1.000000
    9       -3.153014   1.000000
   10       -3.153014   1.000000
   11       -0.162665   0.000000
   12       -0.162665   0.000000
   13        1.234705   0.000000
   14        1.234705   0.000000
   15        1.698046   0.000000
   16        1.698046   0.000000
   17        4.449021   0.000000
   18        4.449043   0.000000
 
 -0.2500000E+00  0.3333333E+00  0.0000000E+00  0.6944444E-02
    1      -11.916891   1.000000
    2      -11.916891   1.000000
    3      -11.221863   1.000000
    4      -11.221863   1.000000
    5       -4.770889   1.000000
    6       -4.770888   1.000000
    7       -3.986380   1.000000
    8       -3.986379   1.000000
    9       -3.024377   1.000000
   10       -3.024376   1.000000
   11       -0.026725   0.000000
   12       -0.026725   0.000000
   13        1.068983   0.000000
   14        1.068984   0.000000
   15        1.643876   0.000000
   16        1.643877   0.000000
   17        4.185808   0.000000
   18        4.185844   0.000000
 
 -0.1666667E+00  0.3333333E+00  0.0000000E+00  0.6944444E-02
    1      -12.254056   1.000000
    2      -12.254055   1.000000
    3      -10.913014   1.000000
    4      -10.913014   1.000000
    5       -4.619440   1.000000
    6       -4.619440   1.000000
    7       -3.986615   1.000000
    8       -3.986615   1.000000
    9       -2.747747   1.000000
   10       -2.747746   1.000000
   11        0.152068   0.000000
   12        0.152068   0.000000
   13        0.806067   0.000000
   14        0.806067   0.000000
   15        1.496236   0.000000
   16        1.496236   0.000000
   17        3.688306   0.000000
   18        3.688323   0.000000
 
 -0.8333333E-01  0.3333333E+00  0.0000000E+00  0.6944444E-02
    1      -12.548312   1.000000
    2      -12.548311   1.000000
    3      -10.651302   1.000000
    4      -10.651302   1.000000
    5       -4.582777   1.000000
    6       -4.582776   1.000000
    7       -3.707302   1.000000
    8       -3.707302   1.000000
    9       -2.413240   1.000000
   10       -2.413240   1.000000
   11       -0.250063   0.000000
   12       -0.250063   0.000000
   13        0.933582   0.000000
   14        0.933582   0.000000
   15        1.534460   0.000000
   16        1.534460   0.000000
   17        3.390896   0.000000
   18        3.390931   0.000000
 
  0.0000000E+00  0.4166667E+00  0.0000000E+00  0.6944444E-02
    1      -12.410810   1.000000
    2      -12.410809   1.000000
    3      -10.789469   1.000000
    4      -10.789469   1.000000
    5       -4.651433   1.000000
    6       -4.651432   1.000000
    7       -3.726953   1.000000
    8       -3.726953   1.000000
    9       -2.378311   1.000000
   10       -2.378310   1.000000
   11       -0.423512   0.000000
   12       -0.423511   0.000000
   13        0.833441   0.000000
   14        0.833442   0.000000
   15        1.663864   0.000000
   16        1.663865   0.000000
   17        3.307663   0.000000
   18        3.307674   0.000000
 
  0.8333333E-01  0.4166667E+00  0.0000000E+00  0.6944444E-02
    1      -12.548313   1.000000
    2      -12.548312   1.000000
    3      -10.651301   1.000000
    4      -10.651301   1.000000
    5       -4.582777   1.000000
    6       -4.582777   1.000000
    7       -3.707301   1.000000
    8       -3.707300   1.000000
    9       -2.413242   1.000000
   10       -2.413242   1.000000
   11       -0.250062   0.000000
   12       -0.250062   0.000000
   13        0.933581   0.000000
   14        0.933582   0.000000
   15        1.534460   0.000000
   16        1.534460   0.000000
   17        3.390895   0.000000
   18        3.391089   0.000000
 
  0.1666667E+00  0.4166667E+00  0.0000000E+00  0.6944444E-02
    1      -12.622356   1.000000
    2      -12.622356   1.000000
    3      -10.571608   1.000000
    4      -10.571608   1.000000
    5       -4.438872   1.000000
    6       -4.438871   1.000000
    7       -3.877981   1.000000
    8       -3.877981   1.000000
    9       -2.457422   1.000000
   10       -2.457422   1.000000
   11        0.140611   0.000000
   12        0.140612   0.000000
   13        0.720723   0.000000
   14        0.720723   0.000000
   15        1.620286   0.000000
   16        1.620287   0.000000
   17        3.440919   0.000000
   18        3.441886   0.000000
 
  0.2500000E+00  0.4166667E+00  0.0000000E+00  0.6944444E-02
    1      -12.622357   1.000000
    2      -12.622357   1.000000
    3      -10.571607   1.000000
    4      -10.571606   1.000000
    5       -4.438871   1.000000
    6       -4.438870   1.000000
    7       -3.877983   1.000000
    8       -3.877982   1.000000
    9       -2.457422   1.000000
   10       -2.457421   1.000000
   11        0.140610   0.000000
   12        0.140611   0.000000
   13        0.720722   0.000000
   14        0.720723   0.000000
   15        1.620285   0.000000
   16        1.620286   0.000000
   17        3.441301   0.000000
   18        3.441944   0.000000
 
  0.3333333E+00  0.4166667E+00  0.0000000E+00  0.6944444E-02
    1      -12.548316   1.000000
    2      -12.548315   1.000000
    3      -10.651297   1.000000
    4      -10.651296   1.000000
    5       -4.582776   1.000000
    6       -4.582776   1.000000
    7       -3.707302   1.000000
    8       -3.707302   1.000000
    9       -2.413241   1.000000
   10       -2.413241   1.000000
   11       -0.250065   0.000000
   12       -0.250065   0.000000
   13        0.933580   0.000000
   14        0.933581   0.000000
   15        1.534458   0.000000
   16        1.534458   0.000000
   17        3.390930   0.000000
   18        3.391103   0.000000
 
  0.4166667E+00  0.4166667E+00  0.0000000E+00  0.6944444E-02
    1      -12.410815   1.000000
    2      -12.410814   1.000000
    3      -10.789462   1.000000
    4      -10.789461   1.000000
    5       -4.651433   1.000000
    6       -4.651433   1.000000
    7       -3.726953   1.000000
    8       -3.726952   1.000000
    9       -2.378311   1.000000
   10       -2.378310   1.000000
   11       -0.423515   0.000000
   12       -0.423515   0.000000
   13        0.833439   0.000000
   14        0.833440   0.000000
   15        1.663863   0.000000
   16        1.663863   0.000000
   17        3.307665   0.000000
   18        3.307675   0.000000
 
  0.5000000E+00  0.4166667E+00  0.0000000E+00  0.6944444E-02
    1      -12.231957   1.000000
    2      -12.231957   1.000000
    3      -10.954102   1.000000
    4      -10.954102   1.000000
    5       -4.659436   1.000000
    6       -4.659436   1.000000
    7       -3.874632   1.000000
    8       -3.874632   1.000000
    9       -2.604744   1.000000
   10       -2.604743   1.000000
   11       -0.083963   0.000000
   12       -0.083962   0.000000
   13        0.762987   0.000000
   14        0.762988   0.000000
   15        1.493002   0.000000
   16        1.493003   0.000000
   17        3.379168   0.000000
   18        3.379172   0.000000
 
 -0.4166667E+00  0.4166667E+00  0.0000000E+00  0.6944444E-02
    1      -12.047919   1.000000
    2      -12.047918   1.000000
    3      -11.112107   1.000000
    4      -11.112107   1.000000
    5       -4.699754   1.000000
    6       -4.699753   1.000000
    7       -3.971688   1.000000
    8       -3.971687   1.000000
    9       -2.886214   1.000000
   10       -2.886213   1.000000
   11        0.147048   0.000000
   12        0.147049   0.000000
   13        0.884163   0.000000
   14        0.884164   0.000000
   15        1.409500   0.000000
   16        1.409501   0.000000
   17        3.649411   0.000000
   18        3.649414   0.000000
 
 -0.3333333E+00  0.4166667E+00  0.0000000E+00  0.6944444E-02
    1      -11.916898   1.000000
    2      -11.916897   1.000000
    3      -11.221856   1.000000
    4      -11.221856   1.000000
    5       -4.770890   1.000000
    6       -4.770890   1.000000
    7       -3.986380   1.000000
    8       -3.986379   1.000000
    9       -3.024376   1.000000
   10       -3.024375   1.000000
   11       -0.026727   0.000000
   12       -0.026726   0.000000
   13        1.068983   0.000000
   14        1.068984   0.000000
   15        1.643876   0.000000
   16        1.643876   0.000000
   17        4.185813   0.000000
   18        4.185831   0.000000
 
 -0.2500000E+00  0.4166667E+00  0.0000000E+00  0.6944444E-02
    1      -11.916894   1.000000
    2      -11.916894   1.000000
    3      -11.221860   1.000000
    4      -11.221860   1.000000
    5       -4.770890   1.000000
    6       -4.770889   1.000000
    7       -3.986379   1.000000
    8       -3.986379   1.000000
    9       -3.024377   1.000000
   10       -3.024376   1.000000
   11       -0.026726   0.000000
   12       -0.026726   0.000000
   13        1.068984   0.000000
   14        1.068984   0.000000
   15        1.643876   0.000000
   16        1.643877   0.000000
   17        4.185809   0.000000
   18        4.185844   0.000000
 
 -0.1666667E+00  0.4166667E+00  0.0000000E+00  0.6944444E-02
    1      -12.047912   1.000000
    2      -12.047912   1.000000
    3      -11.112116   1.000000
    4      -11.112116   1.000000
    5       -4.699753   1.000000
    6       -4.699752   1.000000
    7       -3.971687   1.000000
    8       -3.971687   1.000000
    9       -2.886215   1.000000
   10       -2.886215   1.000000
   11        0.147050   0.000000
   12        0.147050   0.000000
   13        0.884165   0.000000
   14        0.884165   0.000000
   15        1.409502   0.000000
   16        1.409502   0.000000
   17        3.649412   0.000000
   18        3.649414   0.000000
 
 -0.8333333E-01  0.4166667E+00  0.0000000E+00  0.6944444E-02
    1      -12.231951   1.000000
    2      -12.231950   1.000000
    3      -10.954111   1.000000
    4      -10.954111   1.000000
    5       -4.659435   1.000000
    6       -4.659435   1.000000
    7       -3.874633   1.000000
    8       -3.874632   1.000000
    9       -2.604744   1.000000
   10       -2.604744   1.000000
   11       -0.083960   0.000000
   12       -0.083960   0.000000
   13        0.762990   0.000000
   14        0.762990   0.000000
   15        1.493004   0.000000
   16        1.493004   0.000000
   17        3.379168   0.000000
   18        3.379171   0.000000
 
  0.0000000E+00  0.5000000E+00  0.0000000E+00  0.6944444E-02
    1      -12.220441   1.000000
    2      -12.220441   1.000000
    3      -10.975044   1.000000
    4      -10.975044   1.000000
    5       -4.667450   1.000000
    6       -4.667450   1.000000
    7       -3.853360   1.000000
    8       -3.853360   1.000000
    9       -2.465366   1.000000
   10       -2.465366   1.000000
   11       -0.317321   0.000000
   12       -0.317321   0.000000
   13        0.725569   0.000000
   14        0.725570   0.000000
   15        1.638882   0.000000
   16        1.638883   0.000000
   17        3.279520   0.000000
   18        3.279522   0.000000
 
  0.8333333E-01  0.5000000E+00  0.0000000E+00  0.6944444E-02
    1      -12.231951   1.000000
    2      -12.231951   1.000000
    3      -10.954111   1.000000
    4      -10.954110   1.000000
    5       -4.659436   1.000000
    6       -4.659435   1.000000
    7       -3.874632   1.000000
    8       -3.874632   1.000000
    9       -2.604745   1.000000
   10       -2.604744   1.000000
   11       -0.083960   0.000000
   12       -0.083959   0.000000
   13        0.762989   0.000000
   14        0.762990   0.000000
   15        1.493004   0.000000
   16        1.493004   0.000000
   17        3.379167   0.000000
   18        3.379171   0.000000
 
  0.1666667E+00  0.5000000E+00  0.0000000E+00  0.6944444E-02
    1      -12.254057   1.000000
    2      -12.254057   1.000000
    3      -10.913012   1.000000
    4      -10.913011   1.000000
    5       -4.619441   1.000000
    6       -4.619441   1.000000
    7       -3.986613   1.000000
    8       -3.986613   1.000000
    9       -2.747748   1.000000
   10       -2.747747   1.000000
   11        0.152068   0.000000
   12        0.152068   0.000000
   13        0.806067   0.000000
   14        0.806067   0.000000
   15        1.496235   0.000000
   16        1.496236   0.000000
   17        3.688304   0.000000
   18        3.688317   0.000000
 
  0.2500000E+00  0.5000000E+00  0.0000000E+00  0.6944444E-02
    1      -12.264684   1.000000
    2      -12.264683   1.000000
    3      -10.892790   1.000000
    4      -10.892790   1.000000
    5       -4.577962   1.000000
    6       -4.577962   1.000000
    7       -4.084854   1.000000
    8       -4.084853   1.000000
    9       -2.769820   1.000000
   10       -2.769819   1.000000
   11        0.177231   0.000000
   12        0.177231   0.000000
   13        0.752011   0.000000
   14        0.752012   0.000000
   15        1.707276   0.000000
   16        1.707276   0.000000
   17        3.907024   0.000000
   18        3.907824   0.000000
 
  0.3333333E+00  0.5000000E+00  0.0000000E+00  0.6944444E-02
    1      -12.254061   1.000000
    2      -12.254060   1.000000
    3      -10.913007   1.000000
    4      -10.913007   1.000000
    5       -4.619441   1.000000
    6       -4.619441   1.000000
    7       -3.986615   1.000000
    8       -3.986614   1.000000
    9       -2.747747   1.000000
   10       -2.747746   1.000000
   11        0.152066   0.000000
   12        0.152067   0.000000
   13        0.806066   0.000000
   14        0.806066   0.000000
   15        1.496234   0.000000
   16        1.496234   0.000000
   17        3.688304   0.000000
   18        3.688316   0.000000
 
  0.4166667E+00  0.5000000E+00  0.0000000E+00  0.6944444E-02
    1      -12.231957   1.000000
    2      -12.231957   1.000000
    3      -10.954102   1.000000
    4      -10.954102   1.000000
    5       -4.659436   1.000000
    6       -4.659436   1.000000
    7       -3.874632   1.000000
    8       -3.874631   1.000000
    9       -2.604744   1.000000
   10       -2.604743   1.000000
   11       -0.083963   0.000000
   12       -0.083962   0.000000
   13        0.762987   0.000000
   14        0.762988   0.000000
   15        1.493002   0.000000
   16        1.493003   0.000000
   17        3.379168   0.000000
   18        3.379172   0.000000
 
  0.5000000E+00  0.5000000E+00  0.0000000E+00  0.6944444E-02
    1      -12.220448   1.000000
    2      -12.220448   1.000000
    3      -10.975034   1.000000
    4      -10.975034   1.000000
    5       -4.667452   1.000000
    6       -4.667451   1.000000
    7       -3.853359   1.000000
    8       -3.853358   1.000000
    9       -2.465366   1.000000
   10       -2.465366   1.000000
   11       -0.317325   0.000000
   12       -0.317324   0.000000
   13        0.725567   0.000000
   14        0.725568   0.000000
   15        1.638881   0.000000
   16        1.638881   0.000000
   17        3.279521   0.000000
   18        3.279523   0.000000
 
 -0.4166667E+00  0.5000000E+00  0.0000000E+00  0.6944444E-02
    1      -12.231957   1.000000
    2      -12.231957   1.000000
    3      -10.954102   1.000000
    4      -10.954102   1.000000
    5       -4.659436   1.000000
    6       -4.659436   1.000000
    7       -3.874632   1.000000
    8       -3.874631   1.000000
    9       -2.604744   1.000000
   10       -2.604743   1.000000
   11       -0.083963   0.000000
   12       -0.083962   0.000000
   13        0.762987   0.000000
   14        0.762988   0.000000
   15        1.493002   0.000000
   16        1.493003   0.000000
   17        3.379168   0.000000
   18        3.379172   0.000000
 
 -0.3333333E+00  0.5000000E+00  0.0000000E+00  0.6944444E-02
    1      -12.254061   1.000000
    2      -12.254060   1.000000
    3      -10.913007   1.000000
    4      -10.913007   1.000000
    5       -4.619441   1.000000
    6       -4.619441   1.000000
    7       -3.986615   1.000000
    8       -3.986614   1.000000
    9       -2.747746   1.000000
   10       -2.747746   1.000000
   11        0.152066   0.000000
   12        0.152067   0.000000
   13        0.806065   0.000000
   14        0.806066   0.000000
   15        1.496234   0.000000
   16        1.496234   0.000000
   17        3.688309   0.000000
   18        3.688325   0.000000
 
 -0.2500000E+00  0.5000000E+00  0.0000000E+00  0.6944444E-02
    1      -12.264684   1.000000
    2      -12.264683   1.000000
    3      -10.892790   1.000000
    4      -10.892790   1.000000
    5       -4.577962   1.000000
    6       -4.577962   1.000000
    7       -4.084854   1.000000
    8       -4.084853   1.000000
    9       -2.769820   1.000000
   10       -2.769819   1.000000
   11        0.177231   0.000000
   12        0.177231   0.000000
   13        0.752011   0.000000
   14        0.752012   0.000000
   15        1.707276   0.000000
   16        1.707277   0.000000
   17        3.907112   0.000000
   18        3.908307   0.000000
 
 -0.1666667E+00  0.5000000E+00  0.0000000E+00  0.6944444E-02
    1      -12.254057   1.000000
    2      -12.254057   1.000000
    3      -10.913012   1.000000
    4      -10.913011   1.000000
    5       -4.619441   1.000000
    6       -4.619441   1.000000
    7       -3.986613   1.000000
    8       -3.986613   1.000000
    9       -2.747748   1.000000
   10       -2.747747   1.000000
   11        0.152068   0.000000
   12        0.152068   0.000000
   13        0.806067   0.000000
   14        0.806067   0.000000
   15        1.496236   0.000000
   16        1.496236   0.000000
   17        3.688308   0.000000
   18        3.688332   0.000000
 
 -0.8333333E-01  0.5000000E+00  0.0000000E+00  0.6944444E-02
    1      -12.231951   1.000000
    2      -12.231951   1.000000
    3      -10.954111   1.000000
    4      -10.954110   1.000000
    5       -4.659436   1.000000
    6       -4.659435   1.000000
    7       -3.874632   1.000000
    8       -3.874632   1.000000
    9       -2.604745   1.000000
   10       -2.604744   1.000000
   11       -0.083960   0.000000
   12       -0.083959   0.000000
   13        0.762989   0.000000
   14        0.762990   0.000000
   15        1.493004   0.000000
   16        1.493005   0.000000
   17        3.379167   0.000000
   18        3.379171   0.000000
 
  0.0000000E+00 -0.4166667E+00  0.0000000E+00  0.6944444E-02
    1      -12.410810   1.000000
    2      -12.410809   1.000000
    3      -10.789469   1.000000
    4      -10.789469   1.000000
    5       -4.651433   1.000000
    6       -4.651433   1.000000
    7       -3.726953   1.000000
    8       -3.726953   1.000000
    9       -2.378311   1.000000
   10       -2.378310   1.000000
   11       -0.423512   0.000000
   12       -0.423512   0.000000
   13        0.833441   0.000000
   14        0.833442   0.000000
   15        1.663864   0.000000
   16        1.663865   0.000000
   17        3.307664   0.000000
   18        3.307674   0.000000
 
  0.8333333E-01 -0.4166667E+00  0.0000000E+00  0.6944444E-02
    1      -12.231951   1.000000
    2      -12.231950   1.000000
    3      -10.954111   1.000000
    4      -10.954111   1.000000
    5       -4.659435   1.000000
    6       -4.659435   1.000000
    7       -3.874633   1.000000
    8       -3.874632   1.000000
    9       -2.604744   1.000000
   10       -2.604744   1.000000
   11       -0.083960   0.000000
   12       -0.083960   0.000000
   13        0.762990   0.000000
   14        0.762990   0.000000
   15        1.493003   0.000000
   16        1.493004   0.000000
   17        3.379167   0.000000
   18        3.379171   0.000000
 
  0.1666667E+00 -0.4166667E+00  0.0000000E+00  0.6944444E-02
    1      -12.047912   1.000000
    2      -12.047912   1.000000
    3      -11.112116   1.000000
    4      -11.112116   1.000000
    5       -4.699753   1.000000
    6       -4.699752   1.000000
    7       -3.971687   1.000000
    8       -3.971687   1.000000
    9       -2.886215   1.000000
   10       -2.886215   1.000000
   11        0.147050   0.000000
   12        0.147050   0.000000
   13        0.884166   0.000000
   14        0.884166   0.000000
   15        1.409501   0.000000
   16        1.409502   0.000000
   17        3.649411   0.000000
   18        3.649414   0.000000
 
  0.2500000E+00 -0.4166667E+00  0.0000000E+00  0.6944444E-02
    1      -11.916894   1.000000
    2      -11.916894   1.000000
    3      -11.221860   1.000000
    4      -11.221860   1.000000
    5       -4.770889   1.000000
    6       -4.770889   1.000000
    7       -3.986379   1.000000
    8       -3.986379   1.000000
    9       -3.024377   1.000000
   10       -3.024377   1.000000
   11       -0.026726   0.000000
   12       -0.026726   0.000000
   13        1.068984   0.000000
   14        1.068985   0.000000
   15        1.643876   0.000000
   16        1.643877   0.000000
   17        4.185810   0.000000
   18        4.185814   0.000000
 
  0.3333333E+00 -0.4166667E+00  0.0000000E+00  0.6944444E-02
    1      -11.916898   1.000000
    2      -11.916897   1.000000
    3      -11.221856   1.000000
    4      -11.221856   1.000000
    5       -4.770890   1.000000
    6       -4.770890   1.000000
    7       -3.986379   1.000000
    8       -3.986379   1.000000
    9       -3.024376   1.000000
   10       -3.024376   1.000000
   11       -0.026727   0.000000
   12       -0.026727   0.000000
   13        1.068984   0.000000
   14        1.068984   0.000000
   15        1.643876   0.000000
   16        1.643876   0.000000
   17        4.185803   0.000000
   18        4.185825   0.000000
 
  0.4166667E+00 -0.4166667E+00  0.0000000E+00  0.6944444E-02
    1      -12.047919   1.000000
    2      -12.047918   1.000000
    3      -11.112107   1.000000
    4      -11.112107   1.000000
    5       -4.699754   1.000000
    6       -4.699753   1.000000
    7       -3.971687   1.000000
    8       -3.971687   1.000000
    9       -2.886214   1.000000
   10       -2.886214   1.000000
   11        0.147048   0.000000
   12        0.147049   0.000000
   13        0.884164   0.000000
   14        0.884164   0.000000
   15        1.409500   0.000000
   16        1.409501   0.000000
   17        3.649411   0.000000
   18        3.649413   0.000000
 
  0.5000000E+00 -0.4166667E+00  0.0000000E+00  0.6944444E-02
    1      -12.231957   1.000000
    2      -12.231957   1.000000
    3      -10.954102   1.000000
    4      -10.954102   1.000000
    5       -4.659436   1.000000
    6       -4.659436   1.000000
    7       -3.874632   1.000000
    8       -3.874631   1.000000
    9       -2.604744   1.000000
   10       -2.604743   1.000000
   11       -0.083963   0.000000
   12       -0.083962   0.000000
   13        0.762987   0.000000
   14        0.762988   0.000000
   15        1.493002   0.000000
   16        1.493003   0.000000
   17        3.379167   0.000000
   18        3.379171   0.000000
 
 -0.4166667E+00 -0.4166667E+00  0.0000000E+00  0.6944444E-02
    1      -12.410815   1.000000
    2      -12.410814   1.000000
    3      -10.789462   1.000000
    4      -10.789461   1.000000
    5       -4.651433   1.000000
    6       -4.651433   1.000000
    7       -3.726953   1.000000
    8       -3.726952   1.000000
    9       -2.378311   1.000000
   10       -2.378310   1.000000
   11       -0.423515   0.000000
   12       -0.423515   0.000000
   13        0.833439   0.000000
   14        0.833440   0.000000
   15        1.663863   0.000000
   16        1.663863   0.000000
   17        3.307663   0.000000
   18        3.307674   0.000000
 
 -0.3333333E+00 -0.4166667E+00  0.0000000E+00  0.6944444E-02
    1      -12.548316   1.000000
    2      -12.548315   1.000000
    3      -10.651297   1.000000
    4      -10.651296   1.000000
    5       -4.582776   1.000000
    6       -4.582776   1.000000
    7       -3.707302   1.000000
    8       -3.707302   1.000000
    9       -2.413241   1.000000
   10       -2.413241   1.000000
   11       -0.250065   0.000000
   12       -0.250065   0.000000
   13        0.933580   0.000000
   14        0.933581   0.000000
   15        1.534458   0.000000
   16        1.534458   0.000000
   17        3.390894   0.000000
   18        3.391034   0.000000
 
 -0.2500000E+00 -0.4166667E+00  0.0000000E+00  0.6944444E-02
    1      -12.622357   1.000000
    2      -12.622357   1.000000
    3      -10.571607   1.000000
    4      -10.571606   1.000000
    5       -4.438871   1.000000
    6       -4.438870   1.000000
    7       -3.877982   1.000000
    8       -3.877982   1.000000
    9       -2.457422   1.000000
   10       -2.457421   1.000000
   11        0.140610   0.000000
   12        0.140611   0.000000
   13        0.720722   0.000000
   14        0.720723   0.000000
   15        1.620285   0.000000
   16        1.620286   0.000000
   17        3.440888   0.000000
   18        3.441128   0.000000
 
 -0.1666667E+00 -0.4166667E+00  0.0000000E+00  0.6944444E-02
    1      -12.622356   1.000000
    2      -12.622356   1.000000
    3      -10.571608   1.000000
    4      -10.571608   1.000000
    5       -4.438872   1.000000
    6       -4.438872   1.000000
    7       -3.877981   1.000000
    8       -3.877980   1.000000
    9       -2.457422   1.000000
   10       -2.457422   1.000000
   11        0.140611   0.000000
   12        0.140612   0.000000
   13        0.720723   0.000000
   14        0.720723   0.000000
   15        1.620286   0.000000
   16        1.620287   0.000000
   17        3.440816   0.000000
   18        3.446066   0.000000
 
 -0.8333333E-01 -0.4166667E+00  0.0000000E+00  0.6944444E-02
    1      -12.548313   1.000000
    2      -12.548312   1.000000
    3      -10.651301   1.000000
    4      -10.651301   1.000000
    5       -4.582777   1.000000
    6       -4.582777   1.000000
    7       -3.707301   1.000000
    8       -3.707300   1.000000
    9       -2.413242   1.000000
   10       -2.413242   1.000000
   11       -0.250062   0.000000
   12       -0.250062   0.000000
   13        0.933581   0.000000
   14        0.933582   0.000000
   15        1.534460   0.000000
   16        1.534460   0.000000
   17        3.390919   0.000000
   18        3.390980   0.000000
 
  0.0000000E+00 -0.3333333E+00  0.0000000E+00  0.6944444E-02
    1      -12.775590   1.000000
    2      -12.775589   1.000000
    3      -10.450576   1.000000
    4      -10.450576   1.000000
    5       -4.522593   1.000000
    6       -4.522593   1.000000
    7       -3.428204   1.000000
    8       -3.428204   1.000000
    9       -2.141351   1.000000
   10       -2.141351   1.000000
   11       -0.603235   0.000000
   12       -0.603234   0.000000
   13        1.018725   0.000000
   14        1.018725   0.000000
   15        1.723989   0.000000
   16        1.723990   0.000000
   17        3.172212   0.000000
   18        3.173917   0.000000
 
  0.8333333E-01 -0.3333333E+00  0.0000000E+00  0.6944444E-02
    1      -12.548312   1.000000
    2      -12.548311   1.000000
    3      -10.651302   1.000000
    4      -10.651302   1.000000
    5       -4.582777   1.000000
    6       -4.582776   1.000000
    7       -3.707302   1.000000
    8       -3.707301   1.000000
    9       -2.413241   1.000000
   10       -2.413240   1.000000
   11       -0.250063   0.000000
   12       -0.250063   0.000000
   13        0.933582   0.000000
   14        0.933582   0.000000
   15        1.534460   0.000000
   16        1.534460   0.000000
   17        3.390894   0.000000
   18        3.390927   0.000000
 
  0.1666667E+00 -0.3333333E+00  0.0000000E+00  0.6944444E-02
    1      -12.254056   1.000000
    2      -12.254055   1.000000
    3      -10.913014   1.000000
    4      -10.913014   1.000000
    5       -4.619440   1.000000
    6       -4.619440   1.000000
    7       -3.986615   1.000000
    8       -3.986615   1.000000
    9       -2.747747   1.000000
   10       -2.747746   1.000000
   11        0.152068   0.000000
   12        0.152068   0.000000
   13        0.806067   0.000000
   14        0.806067   0.000000
   15        1.496235   0.000000
   16        1.496236   0.000000
   17        3.688305   0.000000
   18        3.688317   0.000000
 
  0.2500000E+00 -0.3333333E+00  0.0000000E+00  0.6944444E-02
    1      -11.916891   1.000000
    2      -11.916891   1.000000
    3      -11.221863   1.000000
    4      -11.221863   1.000000
    5       -4.770889   1.000000
    6       -4.770888   1.000000
    7       -3.986380   1.000000
    8       -3.986379   1.000000
    9       -3.024377   1.000000
   10       -3.024376   1.000000
   11       -0.026725   0.000000
   12       -0.026725   0.000000
   13        1.068984   0.000000
   14        1.068984   0.000000
   15        1.643876   0.000000
   16        1.643877   0.000000
   17        4.185805   0.000000
   18        4.185812   0.000000
 
  0.3333333E+00 -0.3333333E+00  0.0000000E+00  0.6944444E-02
    1      -11.583999   1.000000
    2      -11.583998   1.000000
    3      -11.543332   1.000000
    4      -11.543332   1.000000
    5       -4.859983   1.000000
    6       -4.859982   1.000000
    7       -3.912641   1.000000
    8       -3.912641   1.000000
    9       -3.153014   1.000000
   10       -3.153014   1.000000
   11       -0.162665   0.000000
   12       -0.162665   0.000000
   13        1.234705   0.000000
   14        1.234705   0.000000
   15        1.698045   0.000000
   16        1.698046   0.000000
   17        4.449020   0.000000
   18        4.449045   0.000000
 
  0.4166667E+00 -0.3333333E+00  0.0000000E+00  0.6944444E-02
    1      -11.916898   1.000000
    2      -11.916897   1.000000
    3      -11.221856   1.000000
    4      -11.221856   1.000000
    5       -4.770890   1.000000
    6       -4.770890   1.000000
    7       -3.986379   1.000000
    8       -3.986379   1.000000
    9       -3.024376   1.000000
   10       -3.024376   1.000000
   11       -0.026727   0.000000
   12       -0.026727   0.000000
   13        1.068984   0.000000
   14        1.068984   0.000000
   15        1.643876   0.000000
   16        1.643876   0.000000
   17        4.185806   0.000000
   18        4.185827   0.000000
 
  0.5000000E+00 -0.3333333E+00  0.0000000E+00  0.6944444E-02
    1      -12.254061   1.000000
    2      -12.254060   1.000000
    3      -10.913007   1.000000
    4      -10.913007   1.000000
    5       -4.619441   1.000000
    6       -4.619441   1.000000
    7       -3.986614   1.000000
    8       -3.986614   1.000000
    9       -2.747747   1.000000
   10       -2.747746   1.000000
   11        0.152066   0.000000
   12        0.152067   0.000000
   13        0.806066   0.000000
   14        0.806066   0.000000
   15        1.496234   0.000000
   16        1.496234   0.000000
   17        3.688302   0.000000
   18        3.688315   0.000000
 
 -0.4166667E+00 -0.3333333E+00  0.0000000E+00  0.6944444E-02
    1      -12.548316   1.000000
    2      -12.548315   1.000000
    3      -10.651297   1.000000
    4      -10.651296   1.000000
    5       -4.582776   1.000000
    6       -4.582776   1.000000
    7       -3.707302   1.000000
    8       -3.707302   1.000000
    9       -2.413241   1.000000
   10       -2.413241   1.000000
   11       -0.250065   0.000000
   12       -0.250064   0.000000
   13        0.933580   0.000000
   14        0.933581   0.000000
   15        1.534458   0.000000
   16        1.534458   0.000000
   17        3.390901   0.000000
   18        3.391583   0.000000
 
 -0.3333333E+00 -0.3333333E+00  0.0000000E+00  0.6944444E-02
    1      -12.775592   1.000000
    2      -12.775592   1.000000
    3      -10.450572   1.000000
    4      -10.450572   1.000000
    5       -4.522591   1.000000
    6       -4.522591   1.000000
    7       -3.428206   1.000000
    8       -3.428205   1.000000
    9       -2.141352   1.000000
   10       -2.141351   1.000000
   11       -0.603238   0.000000
   12       -0.603237   0.000000
   13        1.018723   0.000000
   14        1.018724   0.000000
   15        1.723988   0.000000
   16        1.723988   0.000000
   17        3.172246   0.000000
   18        3.172444   0.000000
 
 -0.2500000E+00 -0.3333333E+00  0.0000000E+00  0.6944444E-02
    1      -12.918636   1.000000
    2      -12.918636   1.000000
    3      -10.323861   1.000000
    4      -10.323861   1.000000
    5       -4.367405   1.000000
    6       -4.367404   1.000000
    7       -3.398758   1.000000
    8       -3.398757   1.000000
    9       -2.132477   1.000000
   10       -2.132476   1.000000
   11       -0.351347   0.000000
   12       -0.351346   0.000000
   13        0.991179   0.000000
   14        0.991179   0.000000
   15        1.643773   0.000000
   16        1.643776   0.000000
   17        3.064511   0.000000
   18        3.073551   0.000000
 
 -0.1666667E+00 -0.3333333E+00  0.0000000E+00  0.6944444E-02
    1      -12.967410   1.000000
    2      -12.967410   1.000000
    3      -10.280532   1.000000
    4      -10.280532   1.000000
    5       -4.249067   1.000000
    6       -4.249066   1.000000
    7       -3.486003   1.000000
    8       -3.486002   1.000000
    9       -2.167786   1.000000
   10       -2.167786   1.000000
   11        0.032662   0.000000
   12        0.032663   0.000000
   13        0.720250   0.000000
   14        0.720251   0.000000
   15        1.671804   0.000000
   16        1.671805   0.000000
   17        3.025253   0.000000
   18        3.025335   0.000000
 
 -0.8333333E-01 -0.3333333E+00  0.0000000E+00  0.6944444E-02
    1      -12.918635   1.000000
    2      -12.918635   1.000000
    3      -10.323863   1.000000
    4      -10.323863   1.000000
    5       -4.367407   1.000000
    6       -4.367406   1.000000
    7       -3.398756   1.000000
    8       -3.398755   1.000000
    9       -2.132477   1.000000
   10       -2.132476   1.000000
   11       -0.351344   0.000000
   12       -0.351344   0.000000
   13        0.991179   0.000000
   14        0.991180   0.000000
   15        1.643774   0.000000
   16        1.643775   0.000000
   17        3.064474   0.000000
   18        3.064644   0.000000
 
  0.0000000E+00 -0.2500000E+00  0.0000000E+00  0.6944444E-02
    1      -13.127243   1.000000
    2      -13.127243   1.000000
    3      -10.162863   1.000000
    4      -10.162862   1.000000
    5       -4.199435   1.000000
    6       -4.199435   1.000000
    7       -3.057283   1.000000
    8       -3.057283   1.000000
    9       -1.839707   1.000000
   10       -1.839707   1.000000
   11       -0.656200   0.000000
   12       -0.656199   0.000000
   13        1.074402   0.000000
   14        1.074402   0.000000
   15        1.702190   0.000000
   16        1.702191   0.000000
   17        2.817148   0.000000
   18        2.817218   0.000000
 
  0.8333333E-01 -0.2500000E+00  0.0000000E+00  0.6944444E-02
    1      -12.918634   1.000000
    2      -12.918634   1.000000
    3      -10.323864   1.000000
    4      -10.323864   1.000000
    5       -4.367407   1.000000
    6       -4.367407   1.000000
    7       -3.398756   1.000000
    8       -3.398756   1.000000
    9       -2.132475   1.000000
   10       -2.132474   1.000000
   11       -0.351345   0.000000
   12       -0.351345   0.000000
   13        0.991179   0.000000
   14        0.991180   0.000000
   15        1.643775   0.000000
   16        1.643775   0.000000
   17        3.064453   0.000000
   18        3.064586   0.000000
 
  0.1666667E+00 -0.2500000E+00  0.0000000E+00  0.6944444E-02
    1      -12.622355   1.000000
    2      -12.622354   1.000000
    3      -10.571611   1.000000
    4      -10.571611   1.000000
    5       -4.438872   1.000000
    6       -4.438871   1.000000
    7       -3.877981   1.000000
    8       -3.877981   1.000000
    9       -2.457421   1.000000
   10       -2.457420   1.000000
   11        0.140611   0.000000
   12        0.140611   0.000000
   13        0.720723   0.000000
   14        0.720724   0.000000
   15        1.620287   0.000000
   16        1.620288   0.000000
   17        3.441050   0.000000
   18        3.442146   0.000000
 
  0.2500000E+00 -0.2500000E+00  0.0000000E+00  0.6944444E-02
    1      -12.264680   1.000000
    2      -12.264680   1.000000
    3      -10.892795   1.000000
    4      -10.892794   1.000000
    5       -4.577960   1.000000
    6       -4.577960   1.000000
    7       -4.084855   1.000000
    8       -4.084855   1.000000
    9       -2.769820   1.000000
   10       -2.769819   1.000000
   11        0.177232   0.000000
   12        0.177233   0.000000
   13        0.752010   0.000000
   14        0.752011   0.000000
   15        1.707277   0.000000
   16        1.707277   0.000000
   17        3.907035   0.000000
   18        3.907988   0.000000
 
  0.3333333E+00 -0.2500000E+00  0.0000000E+00  0.6944444E-02
    1      -11.916891   1.000000
    2      -11.916891   1.000000
    3      -11.221863   1.000000
    4      -11.221863   1.000000
    5       -4.770889   1.000000
    6       -4.770888   1.000000
    7       -3.986380   1.000000
    8       -3.986379   1.000000
    9       -3.024377   1.000000
   10       -3.024376   1.000000
   11       -0.026725   0.000000
   12       -0.026725   0.000000
   13        1.068984   0.000000
   14        1.068984   0.000000
   15        1.643876   0.000000
   16        1.643877   0.000000
   17        4.185806   0.000000
   18        4.185818   0.000000
 
  0.4166667E+00 -0.2500000E+00  0.0000000E+00  0.6944444E-02
    1      -11.916894   1.000000
    2      -11.916894   1.000000
    3      -11.221860   1.000000
    4      -11.221860   1.000000
    5       -4.770889   1.000000
    6       -4.770889   1.000000
    7       -3.986379   1.000000
    8       -3.986379   1.000000
    9       -3.024377   1.000000
   10       -3.024376   1.000000
   11       -0.026726   0.000000
   12       -0.026726   0.000000
   13        1.068984   0.000000
   14        1.068985   0.000000
   15        1.643876   0.000000
   16        1.643877   0.000000
   17        4.185806   0.000000
   18        4.185817   0.000000
 
  0.5000000E+00 -0.2500000E+00  0.0000000E+00  0.6944444E-02
    1      -12.264684   1.000000
    2      -12.264683   1.000000
    3      -10.892790   1.000000
    4      -10.892790   1.000000
    5       -4.577962   1.000000
    6       -4.577962   1.000000
    7       -4.084854   1.000000
    8       -4.084853   1.000000
    9       -2.769820   1.000000
   10       -2.769819   1.000000
   11        0.177231   0.000000
   12        0.177231   0.000000
   13        0.752011   0.000000
   14        0.752012   0.000000
   15        1.707276   0.000000
   16        1.707276   0.000000
   17        3.906910   0.000000
   18        3.908113   0.000000
 
 -0.4166667E+00 -0.2500000E+00  0.0000000E+00  0.6944444E-02
    1      -12.622357   1.000000
    2      -12.622357   1.000000
    3      -10.571607   1.000000
    4      -10.571606   1.000000
    5       -4.438871   1.000000
    6       -4.438870   1.000000
    7       -3.877982   1.000000
    8       -3.877982   1.000000
    9       -2.457422   1.000000
   10       -2.457421   1.000000
   11        0.140610   0.000000
   12        0.140611   0.000000
   13        0.720722   0.000000
   14        0.720723   0.000000
   15        1.620285   0.000000
   16        1.620286   0.000000
   17        3.440855   0.000000
   18        3.441109   0.000000
 
 -0.3333333E+00 -0.2500000E+00  0.0000000E+00  0.6944444E-02
    1      -12.918636   1.000000
    2      -12.918636   1.000000
    3      -10.323861   1.000000
    4      -10.323861   1.000000
    5       -4.367405   1.000000
    6       -4.367404   1.000000
    7       -3.398758   1.000000
    8       -3.398757   1.000000
    9       -2.132477   1.000000
   10       -2.132476   1.000000
   11       -0.351347   0.000000
   12       -0.351346   0.000000
   13        0.991179   0.000000
   14        0.991179   0.000000
   15        1.643773   0.000000
   16        1.643773   0.000000
   17        3.064460   0.000000
   18        3.064881   0.000000
 
 -0.2500000E+00 -0.2500000E+00  0.0000000E+00  0.6944444E-02
    1      -13.127244   1.000000
    2      -13.127244   1.000000
    3      -10.162860   1.000000
    4      -10.162860   1.000000
    5       -4.199432   1.000000
    6       -4.199432   1.000000
    7       -3.057285   1.000000
    8       -3.057284   1.000000
    9       -1.839709   1.000000
   10       -1.839708   1.000000
   11       -0.656203   0.000000
   12       -0.656203   0.000000
   13        1.074403   0.000000
   14        1.074403   0.000000
   15        1.702189   0.000000
   16        1.702190   0.000000
   17        2.817143   0.000000
   18        2.819137   0.000000
 
 -0.1666667E+00 -0.2500000E+00  0.0000000E+00  0.6944444E-02
    1      -13.234568   1.000000
    2      -13.234567   1.000000
    3      -10.085388   1.000000
    4      -10.085387   1.000000
    5       -4.007145   1.000000
    6       -4.007145   1.000000
    7       -2.980701   1.000000
    8       -2.980700   1.000000
    9       -1.866841   1.000000
   10       -1.866840   1.000000
   11       -0.296127   0.000000
   12       -0.296127   0.000000
   13        0.845219   0.000000
   14        0.845220   0.000000
   15        1.631487   0.000000
   16        1.631488   0.000000
   17        2.698386   0.000000
   18        2.698477   0.000000
 
 -0.8333333E-01 -0.2500000E+00  0.0000000E+00  0.6944444E-02
    1      -13.234568   1.000000
    2      -13.234567   1.000000
    3      -10.085389   1.000000
    4      -10.085388   1.000000
    5       -4.007147   1.000000
    6       -4.007146   1.000000
    7       -2.980700   1.000000
    8       -2.980699   1.000000
    9       -1.866840   1.000000
   10       -1.866840   1.000000
   11       -0.296124   0.000000
   12       -0.296124   0.000000
   13        0.845218   0.000000
   14        0.845218   0.000000
   15        1.631487   0.000000
   16        1.631488   0.000000
   17        2.698398   0.000000
   18        2.698490   0.000000
 
  0.0000000E+00 -0.1666667E+00  0.0000000E+00  0.6944444E-02
    1      -13.401532   1.000000
    2      -13.401532   1.000000
    3       -9.981108   1.000000
    4       -9.981107   1.000000
    5       -3.743936   1.000000
    6       -3.743936   1.000000
    7       -2.633487   1.000000
    8       -2.633486   1.000000
    9       -1.573368   1.000000
   10       -1.573367   1.000000
   11       -0.522788   0.000000
   12       -0.522788   0.000000
   13        0.904518   0.000000
   14        0.904519   0.000000
   15        1.475152   0.000000
   16        1.475153   0.000000
   17        2.494024   0.000000
   18        2.494118   0.000000
 
  0.8333333E-01 -0.1666667E+00  0.0000000E+00  0.6944444E-02
    1      -13.234567   1.000000
    2      -13.234567   1.000000
    3      -10.085390   1.000000
    4      -10.085389   1.000000
    5       -4.007149   1.000000
    6       -4.007148   1.000000
    7       -2.980699   1.000000
    8       -2.980699   1.000000
    9       -1.866837   1.000000
   10       -1.866836   1.000000
   11       -0.296125   0.000000
   12       -0.296125   0.000000
   13        0.845218   0.000000
   14        0.845219   0.000000
   15        1.631487   0.000000
   16        1.631487   0.000000
   17        2.698389   0.000000
   18        2.698491   0.000000
 
  0.1666667E+00 -0.1666667E+00  0.0000000E+00  0.6944444E-02
    1      -12.967409   1.000000
    2      -12.967409   1.000000
    3      -10.280535   1.000000
    4      -10.280534   1.000000
    5       -4.249069   1.000000
    6       -4.249069   1.000000
    7       -3.486001   1.000000
    8       -3.486001   1.000000
    9       -2.167784   1.000000
   10       -2.167783   1.000000
   11        0.032662   0.000000
   12        0.032662   0.000000
   13        0.720251   0.000000
   14        0.720251   0.000000
   15        1.671805   0.000000
   16        1.671806   0.000000
   17        3.025327   0.000000
   18        3.025559   0.000000
 
  0.2500000E+00 -0.1666667E+00  0.0000000E+00  0.6944444E-02
    1      -12.622355   1.000000
    2      -12.622354   1.000000
    3      -10.571611   1.000000
    4      -10.571611   1.000000
    5       -4.438872   1.000000
    6       -4.438871   1.000000
    7       -3.877982   1.000000
    8       -3.877981   1.000000
    9       -2.457421   1.000000
   10       -2.457420   1.000000
   11        0.140611   0.000000
   12        0.140611   0.000000
   13        0.720723   0.000000
   14        0.720724   0.000000
   15        1.620287   0.000000
   16        1.620288   0.000000
   17        3.440932   0.000000
   18        3.445020   0.000000
 
  0.3333333E+00 -0.1666667E+00  0.0000000E+00  0.6944444E-02
    1      -12.254056   1.000000
    2      -12.254055   1.000000
    3      -10.913014   1.000000
    4      -10.913014   1.000000
    5       -4.619440   1.000000
    6       -4.619440   1.000000
    7       -3.986615   1.000000
    8       -3.986615   1.000000
    9       -2.747747   1.000000
   10       -2.747746   1.000000
   11        0.152068   0.000000
   12        0.152068   0.000000
   13        0.806067   0.000000
   14        0.806067   0.000000
   15        1.496236   0.000000
   16        1.496236   0.000000
   17        3.688309   0.000000
   18        3.688320   0.000000
 
  0.4166667E+00 -0.1666667E+00  0.0000000E+00  0.6944444E-02
    1      -12.047912   1.000000
    2      -12.047911   1.000000
    3      -11.112116   1.000000
    4      -11.112116   1.000000
    5       -4.699753   1.000000
    6       -4.699752   1.000000
    7       -3.971687   1.000000
    8       -3.971687   1.000000
    9       -2.886215   1.000000
   10       -2.886215   1.000000
   11        0.147050   0.000000
   12        0.147050   0.000000
   13        0.884165   0.000000
   14        0.884166   0.000000
   15        1.409502   0.000000
   16        1.409502   0.000000
   17        3.649411   0.000000
   18        3.649414   0.000000
 
  0.5000000E+00 -0.1666667E+00  0.0000000E+00  0.6944444E-02
    1      -12.254057   1.000000
    2      -12.254057   1.000000
    3      -10.913012   1.000000
    4      -10.913011   1.000000
    5       -4.619441   1.000000
    6       -4.619441   1.000000
    7       -3.986613   1.000000
    8       -3.986613   1.000000
    9       -2.747748   1.000000
   10       -2.747747   1.000000
   11        0.152068   0.000000
   12        0.152068   0.000000
   13        0.806067   0.000000
   14        0.806067   0.000000
   15        1.496236   0.000000
   16        1.496236   0.000000
   17        3.688303   0.000000
   18        3.688315   0.000000
 
 -0.4166667E+00 -0.1666667E+00  0.0000000E+00  0.6944444E-02
    1      -12.622356   1.000000
    2      -12.622356   1.000000
    3      -10.571608   1.000000
    4      -10.571608   1.000000
    5       -4.438872   1.000000
    6       -4.438871   1.000000
    7       -3.877981   1.000000
    8       -3.877981   1.000000
    9       -2.457422   1.000000
   10       -2.457422   1.000000
   11        0.140611   0.000000
   12        0.140612   0.000000
   13        0.720723   0.000000
   14        0.720723   0.000000
   15        1.620286   0.000000
   16        1.620287   0.000000
   17        3.440900   0.000000
   18        3.442048   0.000000
 
 -0.3333333E+00 -0.1666667E+00  0.0000000E+00  0.6944444E-02
    1      -12.967410   1.000000
    2      -12.967410   1.000000
    3      -10.280532   1.000000
    4      -10.280532   1.000000
    5       -4.249067   1.000000
    6       -4.249066   1.000000
    7       -3.486002   1.000000
    8       -3.486002   1.000000
    9       -2.167787   1.000000
   10       -2.167786   1.000000
   11        0.032662   0.000000
   12        0.032663   0.000000
   13        0.720250   0.000000
   14        0.720250   0.000000
   15        1.671804   0.000000
   16        1.671804   0.000000
   17        3.025304   0.000000
   18        3.025375   0.000000
 
 -0.2500000E+00 -0.1666667E+00  0.0000000E+00  0.6944444E-02
    1      -13.234568   1.000000
    2      -13.234567   1.000000
    3      -10.085388   1.000000
    4      -10.085388   1.000000
    5       -4.007145   1.000000
    6       -4.007145   1.000000
    7       -2.980701   1.000000
    8       -2.980700   1.000000
    9       -1.866841   1.000000
   10       -1.866840   1.000000
   11       -0.296127   0.000000
   12       -0.296126   0.000000
   13        0.845219   0.000000
   14        0.845220   0.000000
   15        1.631486   0.000000
   16        1.631487   0.000000
   17        2.698386   0.000000
   18        2.698476   0.000000
 
 -0.1666667E+00 -0.1666667E+00  0.0000000E+00  0.6944444E-02
    1      -13.401533   1.000000
    2      -13.401532   1.000000
    3       -9.981107   1.000000
    4       -9.981106   1.000000
    5       -3.743934   1.000000
    6       -3.743933   1.000000
    7       -2.633487   1.000000
    8       -2.633486   1.000000
    9       -1.573371   1.000000
   10       -1.573370   1.000000
   11       -0.522792   0.000000
   12       -0.522792   0.000000
   13        0.904521   0.000000
   14        0.904522   0.000000
   15        1.475153   0.000000
   16        1.475154   0.000000
   17        2.494023   0.000000
   18        2.494117   0.000000
 
 -0.8333333E-01 -0.1666667E+00  0.0000000E+00  0.6944444E-02
    1      -13.458191   1.000000
    2      -13.458190   1.000000
    3       -9.949268   1.000000
    4       -9.949267   1.000000
    5       -3.618666   1.000000
    6       -3.618665   1.000000
    7       -2.505629   1.000000
    8       -2.505629   1.000000
    9       -1.585340   1.000000
   10       -1.585339   1.000000
   11       -0.326692   0.000000
   12       -0.326692   0.000000
   13        0.693375   0.000000
   14        0.693375   0.000000
   15        1.448221   0.000000
   16        1.448222   0.000000
   17        2.424031   0.000000
   18        2.424127   0.000000
 
  0.0000000E+00 -0.8333333E-01  0.0000000E+00  0.6944444E-02
    1      -13.573265   1.000000
    2      -13.573264   1.000000
    3       -9.891812   1.000000
    4       -9.891811   1.000000
    5       -3.384733   1.000000
    6       -3.384732   1.000000
    7       -2.068388   1.000000
    8       -2.068387   1.000000
    9       -1.348964   1.000000
   10       -1.348964   1.000000
   11       -0.560844   0.000000
   12       -0.560843   0.000000
   13        0.566159   0.000000
   14        0.566159   0.000000
   15        1.429232   0.000000
   16        1.429233   0.000000
   17        2.257634   0.000000
   18        2.257720   0.000000
 
  0.8333333E-01 -0.8333333E-01  0.0000000E+00  0.6944444E-02
    1      -13.458191   1.000000
    2      -13.458190   1.000000
    3       -9.949269   1.000000
    4       -9.949268   1.000000
    5       -3.618668   1.000000
    6       -3.618667   1.000000
    7       -2.505630   1.000000
    8       -2.505630   1.000000
    9       -1.585335   1.000000
   10       -1.585334   1.000000
   11       -0.326692   0.000000
   12       -0.326692   0.000000
   13        0.693374   0.000000
   14        0.693375   0.000000
   15        1.448220   0.000000
   16        1.448220   0.000000
   17        2.424035   0.000000
   18        2.424134   0.000000
 
  0.1666667E+00 -0.8333333E-01  0.0000000E+00  0.6944444E-02
    1      -13.234567   1.000000
    2      -13.234567   1.000000
    3      -10.085390   1.000000
    4      -10.085389   1.000000
    5       -4.007148   1.000000
    6       -4.007148   1.000000
    7       -2.980699   1.000000
    8       -2.980699   1.000000
    9       -1.866837   1.000000
   10       -1.866836   1.000000
   11       -0.296125   0.000000
   12       -0.296125   0.000000
   13        0.845218   0.000000
   14        0.845219   0.000000
   15        1.631487   0.000000
   16        1.631487   0.000000
   17        2.698388   0.000000
   18        2.698476   0.000000
 
  0.2500000E+00 -0.8333333E-01  0.0000000E+00  0.6944444E-02
    1      -12.918634   1.000000
    2      -12.918634   1.000000
    3      -10.323864   1.000000
    4      -10.323864   1.000000
    5       -4.367407   1.000000
    6       -4.367407   1.000000
    7       -3.398756   1.000000
    8       -3.398756   1.000000
    9       -2.132475   1.000000
   10       -2.132474   1.000000
   11       -0.351345   0.000000
   12       -0.351345   0.000000
   13        0.991179   0.000000
   14        0.991179   0.000000
   15        1.643775   0.000000
   16        1.643775   0.000000
   17        3.064472   0.000000
   18        3.064753   0.000000
 
  0.3333333E+00 -0.8333333E-01  0.0000000E+00  0.6944444E-02
    1      -12.548312   1.000000
    2      -12.548311   1.000000
    3      -10.651302   1.000000
    4      -10.651302   1.000000
    5       -4.582777   1.000000
    6       -4.582776   1.000000
    7       -3.707302   1.000000
    8       -3.707302   1.000000
    9       -2.413240   1.000000
   10       -2.413240   1.000000
   11       -0.250063   0.000000
   12       -0.250063   0.000000
   13        0.933582   0.000000
   14        0.933582   0.000000
   15        1.534460   0.000000
   16        1.534460   0.000000
   17        3.390896   0.000000
   18        3.391108   0.000000
 
  0.4166667E+00 -0.8333333E-01  0.0000000E+00  0.6944444E-02
    1      -12.231951   1.000000
    2      -12.231950   1.000000
    3      -10.954111   1.000000
    4      -10.954111   1.000000
    5       -4.659435   1.000000
    6       -4.659435   1.000000
    7       -3.874633   1.000000
    8       -3.874632   1.000000
    9       -2.604744   1.000000
   10       -2.604744   1.000000
   11       -0.083960   0.000000
   12       -0.083960   0.000000
   13        0.762990   0.000000
   14        0.762990   0.000000
   15        1.493004   0.000000
   16        1.493004   0.000000
   17        3.379168   0.000000
   18        3.379171   0.000000
 
  0.5000000E+00 -0.8333333E-01  0.0000000E+00  0.6944444E-02
    1      -12.231951   1.000000
    2      -12.231951   1.000000
    3      -10.954111   1.000000
    4      -10.954110   1.000000
    5       -4.659436   1.000000
    6       -4.659435   1.000000
    7       -3.874632   1.000000
    8       -3.874632   1.000000
    9       -2.604745   1.000000
   10       -2.604744   1.000000
   11       -0.083960   0.000000
   12       -0.083959   0.000000
   13        0.762989   0.000000
   14        0.762990   0.000000
   15        1.493004   0.000000
   16        1.493005   0.000000
   17        3.379167   0.000000
   18        3.379171   0.000000
 
 -0.4166667E+00 -0.8333333E-01  0.0000000E+00  0.6944444E-02
    1      -12.548313   1.000000
    2      -12.548312   1.000000
    3      -10.651301   1.000000
    4      -10.651301   1.000000
    5       -4.582777   1.000000
    6       -4.582777   1.000000
    7       -3.707301   1.000000
    8       -3.707300   1.000000
    9       -2.413242   1.000000
   10       -2.413242   1.000000
   11       -0.250062   0.000000
   12       -0.250062   0.000000
   13        0.933581   0.000000
   14        0.933582   0.000000
   15        1.534460   0.000000
   16        1.534460   0.000000
   17        3.390904   0.000000
   18        3.390993   0.000000
 
 -0.3333333E+00 -0.8333333E-01  0.0000000E+00  0.6944444E-02
    1      -12.918635   1.000000
    2      -12.918635   1.000000
    3      -10.323863   1.000000
    4      -10.323863   1.000000
    5       -4.367406   1.000000
    6       -4.367406   1.000000
    7       -3.398756   1.000000
    8       -3.398756   1.000000
    9       -2.132477   1.000000
   10       -2.132476   1.000000
   11       -0.351344   0.000000
   12       -0.351344   0.000000
   13        0.991179   0.000000
   14        0.991180   0.000000
   15        1.643774   0.000000
   16        1.643774   0.000000
   17        3.064432   0.000000
   18        3.064704   0.000000
 
 -0.2500000E+00 -0.8333333E-01  0.0000000E+00  0.6944444E-02
    1      -13.234568   1.000000
    2      -13.234567   1.000000
    3      -10.085389   1.000000
    4      -10.085388   1.000000
    5       -4.007146   1.000000
    6       -4.007146   1.000000
    7       -2.980700   1.000000
    8       -2.980700   1.000000
    9       -1.866840   1.000000
   10       -1.866840   1.000000
   11       -0.296124   0.000000
   12       -0.296124   0.000000
   13        0.845218   0.000000
   14        0.845218   0.000000
   15        1.631486   0.000000
   16        1.631487   0.000000
   17        2.698391   0.000000
   18        2.698481   0.000000
 
 -0.1666667E+00 -0.8333333E-01  0.0000000E+00  0.6944444E-02
    1      -13.458191   1.000000
    2      -13.458190   1.000000
    3       -9.949268   1.000000
    4       -9.949268   1.000000
    5       -3.618665   1.000000
    6       -3.618665   1.000000
    7       -2.505629   1.000000
    8       -2.505629   1.000000
    9       -1.585340   1.000000
   10       -1.585339   1.000000
   11       -0.326692   0.000000
   12       -0.326692   0.000000
   13        0.693375   0.000000
   14        0.693375   0.000000
   15        1.448221   0.000000
   16        1.448222   0.000000
   17        2.424034   0.000000
   18        2.424130   0.000000
 
 -0.8333333E-01 -0.8333333E-01  0.0000000E+00  0.6944444E-02
    1      -13.573265   1.000000
    2      -13.573264   1.000000
    3       -9.891811   1.000000
    4       -9.891811   1.000000
    5       -3.384732   1.000000
    6       -3.384732   1.000000
    7       -2.068385   1.000000
    8       -2.068385   1.000000
    9       -1.348969   1.000000
   10       -1.348968   1.000000
   11       -0.560845   0.000000
   12       -0.560844   0.000000
   13        0.566160   0.000000
   14        0.566161   0.000000
   15        1.429232   0.000000
   16        1.429234   0.000000
   17        2.257614   0.000000
   18        2.257705   0.000000
