       N       E                     dE             d eps       ncg     rms          rms(c)
DAV:   1     0.175630270951E+03    0.17563E+03   -0.11457E+04  1360   0.495E+02
DAV:   2    -0.300529694950E+02   -0.20568E+03   -0.19184E+03  1688   0.143E+02
DAV:   3    -0.463802413690E+02   -0.16327E+02   -0.15952E+02  1624   0.379E+01
DAV:   4    -0.467154723537E+02   -0.33523E+00   -0.33482E+00  1696   0.608E+00
DAV:   5    -0.467253755749E+02   -0.99032E-02   -0.99022E-02  1728   0.101E+00    0.341E+01
DAV:   6    -0.444635345495E+02    0.22618E+01   -0.35985E+00  1648   0.107E+01    0.119E+01
DAV:   7    -0.441440626336E+02    0.31947E+00   -0.19837E+00  1512   0.102E+01    0.103E+01
DAV:   8    -0.435495114066E+02    0.59455E+00   -0.33810E-01  1632   0.409E+00    0.148E+00
DAV:   9    -0.435539235619E+02   -0.44122E-02   -0.13913E-01  1616   0.146E+00    0.462E-01
DAV:  10    -0.435510956223E+02    0.28279E-02   -0.26152E-03  1664   0.228E-01    0.236E-01
DAV:  11    -0.435504263936E+02    0.66923E-03   -0.13401E-03  1568   0.138E-01    0.182E-01
DAV:  12    -0.435502339775E+02    0.19242E-03   -0.45206E-04  1632   0.762E-02    0.609E-02
DAV:  13    -0.435502127788E+02    0.21199E-04   -0.58138E-05  1568   0.322E-02    0.673E-02
DAV:  14    -0.435502058659E+02    0.69129E-05   -0.36497E-05  1520   0.231E-02    0.318E-02
DAV:  15    -0.435502305553E+02   -0.24689E-04   -0.12087E-05  1536   0.160E-02    0.223E-02
DAV:  16    -0.435502580887E+02   -0.27533E-04   -0.30727E-06  1592   0.584E-03    0.192E-02
DAV:  17    -0.435503198337E+02   -0.61745E-04   -0.46886E-06  1448   0.606E-03    0.754E-03
DAV:  18    -0.435503382280E+02   -0.18394E-04   -0.24057E-06  1512   0.486E-03    0.137E-02
DAV:  19    -0.435503447747E+02   -0.65467E-05   -0.19026E-07  1600   0.172E-03    0.797E-03
DAV:  20    -0.435503653609E+02   -0.20586E-04   -0.10936E-06  1528   0.261E-03    0.698E-03
DAV:  21    -0.435503814119E+02   -0.16051E-04   -0.19603E-07  1456   0.112E-03    0.503E-03
DAV:  22    -0.435503958230E+02   -0.14411E-04   -0.16139E-07  1432   0.115E-03    0.231E-03
DAV:  23    -0.435504050955E+02   -0.92725E-05   -0.11064E-07  1360   0.843E-04    0.618E-04
DAV:  24    -0.435504095858E+02   -0.44903E-05   -0.53571E-08  1320   0.608E-04    0.859E-04
DAV:  25    -0.435504113780E+02   -0.17922E-05   -0.21660E-08  1240   0.339E-04    0.210E-04
DAV:  26    -0.435504117711E+02   -0.39303E-06   -0.31219E-09  1224   0.128E-04    0.327E-04
DAV:  27    -0.435504118550E+02   -0.83970E-07   -0.57913E-10  1184   0.731E-05
   1 F= -.43550412E+02 E0= -.43550412E+02  d E =-.599351E-25  mag=    -0.0000    -0.0000     0.0000
