K-POINTS
0
GMonkhorst-Pack
11 11 1
0    0    0
