       N       E                     dE             d eps       ncg     rms          rms(c)
DAV:   1     0.177977213927E+03    0.17798E+03   -0.11401E+04  1936   0.496E+02
DAV:   2    -0.297085192153E+02   -0.20769E+03   -0.19341E+03  2368   0.143E+02
DAV:   3    -0.463652626142E+02   -0.16657E+02   -0.16284E+02  2344   0.382E+01
DAV:   4    -0.467111291184E+02   -0.34587E+00   -0.34544E+00  2360   0.616E+00
DAV:   5    -0.467217419038E+02   -0.10613E-01   -0.10612E-01  2456   0.104E+00    0.341E+01
DAV:   6    -0.444619942319E+02    0.22597E+01   -0.35931E+00  2312   0.107E+01    0.119E+01
DAV:   7    -0.441418623222E+02    0.32013E+00   -0.18291E+00  2168   0.102E+01    0.103E+01
DAV:   8    -0.435490691551E+02    0.59279E+00   -0.33513E-01  2304   0.409E+00    0.149E+00
DAV:   9    -0.435533353766E+02   -0.42662E-02   -0.13890E-01  2344   0.146E+00    0.464E-01
DAV:  10    -0.435504971698E+02    0.28382E-02   -0.26502E-03  2312   0.228E-01    0.223E-01
DAV:  11    -0.435498187538E+02    0.67842E-03   -0.13341E-03  2288   0.138E-01    0.170E-01
DAV:  12    -0.435496403424E+02    0.17841E-03   -0.44315E-04  2344   0.744E-02    0.609E-02
DAV:  13    -0.435496184040E+02    0.21938E-04   -0.53177E-05  2264   0.312E-02    0.663E-02
DAV:  14    -0.435496032447E+02    0.15159E-04   -0.23697E-05  2176   0.185E-02    0.269E-02
DAV:  15    -0.435496285670E+02   -0.25322E-04   -0.16903E-05  2216   0.147E-02    0.202E-02
DAV:  16    -0.435496545725E+02   -0.26005E-04   -0.25599E-06  2304   0.665E-03    0.184E-02
DAV:  17    -0.435497174088E+02   -0.62836E-04   -0.45291E-06  2064   0.610E-03    0.118E-02
DAV:  18    -0.435497397153E+02   -0.22307E-04   -0.25709E-06  2088   0.451E-03    0.829E-03
DAV:  19    -0.435497490067E+02   -0.92913E-05   -0.20383E-07  2208   0.141E-03    0.821E-03
DAV:  20    -0.435497689193E+02   -0.19913E-04   -0.10295E-06  2136   0.249E-03    0.296E-03
DAV:  21    -0.435497860823E+02   -0.17163E-04   -0.17471E-07  2080   0.119E-03    0.424E-03
DAV:  22    -0.435498016654E+02   -0.15583E-04   -0.19124E-07  2040   0.125E-03    0.189E-03
DAV:  23    -0.435498111248E+02   -0.94594E-05   -0.11977E-07  2016   0.845E-04    0.974E-04
DAV:  24    -0.435498133846E+02   -0.22598E-05   -0.12081E-08  1960   0.347E-04    0.997E-04
DAV:  25    -0.435498154922E+02   -0.21076E-05   -0.23916E-08  1728   0.341E-04    0.173E-04
DAV:  26    -0.435498160785E+02   -0.58633E-06   -0.38322E-09  1832   0.155E-04    0.252E-04
DAV:  27    -0.435498161746E+02   -0.96092E-07    0.27219E-11  1720   0.661E-05
   1 F= -.43549816E+02 E0= -.43549816E+02  d E =-.488803E-25  mag=     0.0000    -0.0000    -0.0000
